Pt H 
 1.0000000000000000
     8.3155757467537992    0.0000000000000000    0.0000000000000000
     4.1577878733768996    7.2014998437825426    0.0000000000000000
     0.0000000000000000    0.0000000000000000   26.7896391656699997
 Pt  H  
  36   1
Cartesian
  1.6179204159381326  0.3995042945126838  9.7485412258975579
  4.3877731789396144  0.3995042945126842  9.7485412258975561
  7.1606346708157744  0.4002053937464754  9.7452092876770191
  3.0028467974388735  2.7995399922696111  9.7533903901036894
  5.7748110946247309  2.8005222380361579  9.7452092876770191
  8.5464582470068162  2.8005222380361570  9.7452092876770191
  4.3896795958183992  5.2016048606658627  9.7533903901036947
  7.1606346708157753  5.2022412807934231  9.7485412258975614
  9.9315897458131612  5.2016048606658618  9.7533903901036911
  3.0028467974388739  1.1991676430440583 11.9531199969651674
  5.7740450689610867  1.1998687433865913 11.9449676400183300
  8.5472242726704604  1.1998687433865929 11.9449676400183300
  4.3902235820057554  3.5999142111633149 11.9510977858142375
  7.1606346708157709  3.6015123830456082 11.9449676400183282
  9.9310457596257855  3.5999142111633144 11.9510977858142375
  5.7756427057619044  6.0017910352786386 11.9531199969651691
  8.5456266358696471  6.0017910352786394 11.9531199969651727
 11.3184225441926749  6.0029212912747001 11.9510977858142358
  1.6171903507438401  1.9994080187581873 14.2367115317331461
  4.3885032441339060  1.9994080187581851 14.2367115317331425
  7.1606346708157735  2.0004166232729306 14.2262897093465117
  3.0028467974388726  4.4009165712004430 14.2337704110998668
  5.7754424346069797  4.4016571636659947 14.2367115317331372
  8.5458269070245692  4.4016571636659947 14.2367115317331407
  4.3897859879119450  6.8016845311771510 14.2367115317331372
  7.1606346708157753  6.8014165191279581 14.2418936938901499
  9.9314833537195959  6.8016845311771501 14.2367115317331479
  1.6170270860809459  0.4000200587462042 16.4418908464928855
  4.3886665087967947  0.4000200587462014 16.4418908464928855
  7.1606346708157727  0.4013340906600484 16.4334365968314877
  3.0028467974388739  2.8009147603839253 16.4379699224017095
  5.7757885748250573  2.7999578895793724 16.4334365968314877
  8.5454807668064934  2.7999578895793742 16.4334365968314913
  4.3884890117070849  5.2009174766087032 16.4379699224017024
  7.1606346708157718  5.2012097523263821 16.4418908464928890
  9.9327803299244639  5.2009174766087032 16.4379699224017024
  3.0028467974388762  4.4009165712004359 18.2683678022152947
