Pt
 1.0000000000000000
     8.3155757467537992    0.0000000000000000    0.0000000000000000
     4.1577878733768996    7.2014998437825426    0.0000000000000000
     0.0000000000000000    0.0000000000000000   26.7896391656699997
 Pt 
  36
Cartesian
  1.6169175063132386  0.4000833246545865 10.0484046888994278
  4.3887760885645051  0.4000833246545858 10.0484046888994296
  7.1606346708157718  0.4000833246545868 10.0484046888994225
  3.0028467974388713  2.8005832725821014 10.0484046888994278
  5.7747053796901371  2.8005832725821000 10.0484046888994296
  8.5465639619414038  2.8005832725820996 10.0484046888994243
  4.3887760885645033  5.2010832205096138 10.0484046888994225
  7.1606346708157709  5.2010832205096156 10.0484046888994296
  9.9324932530670385  5.2010832205096138 10.0484046888994296
  3.0028467974388717  1.2002499739637587 12.2535207576636775
  5.7747053796901380  1.2002499739637593 12.2535207576636740
  8.5465639619414056  1.2002499739637580 12.2535207576636758
  4.3887760885645140  3.6007499218912704 12.2535207576636775
  7.1606346708157718  3.6007499218912691 12.2535207576636758
  9.9324932530670402  3.6007499218912717 12.2535207576636775
  5.7747053796901389  6.0012498698187855 12.2535207576636775
  8.5465639619414056  6.0012498698187899 12.2535207576636775
 11.3184225441926749  6.0012498698187873 12.2535207576636758
  1.6169175063132384  2.0004166232729332 14.5361184080063293
  4.3887760885645051  2.0004166232729319 14.5361184080063293
  7.1606346708157735  2.0004166232729328 14.5361184080063328
  3.0028467974388713  4.4009165712004448 14.5361184080063275
  5.7747053796901380  4.4009165712004368 14.5361184080063293
  8.5465639619414038  4.4009165712004439 14.5361184080063435
  4.3887760885645060  6.8014165191279581 14.5361184080063257
  7.1606346708157709  6.8014165191279581 14.5361184080063275
  9.9324932530670385  6.8014165191279563 14.5361184080063275
  1.6169175063132399  0.4000833246545847 16.7412344767705790
  4.3887760885645051  0.4000833246545837 16.7412344767705825
  7.1606346708157718  0.4000833246545905 16.7412344767705861
  3.0028467974388757  2.8005832725820992 16.7412344767705825
  5.7747053796901398  2.8005832725820987 16.7412344767705825
  8.5465639619414038  2.8005832725821000 16.7412344767705825
  4.3887760885645060  5.2010832205096120 16.7412344767705825
  7.1606346708157718  5.2010832205096165 16.7412344767705825
  9.9324932530670385  5.2010832205096147 16.7412344767705861
