Pt
 1.0000000000000000
     8.3155757467537992    0.0000000000000000    0.0000000000000000
     4.1577878733768996    7.2014998437825426    0.0000000000000000
     0.0000000000000000    0.0000000000000000   26.7896391656699997
 Pt 
  36
Cartesian
  1.6169175063132391  0.4000833246545858 10.0000000000000000
  4.3887760885645051  0.4000833246545858 10.0000000000000000
  7.1606346708157718  0.4000833246545858 10.0000000000000000
  3.0028467974388722  2.8005832725821000 10.0000000000000000
  5.7747053796901389  2.8005832725821000 10.0000000000000000
  8.5465639619414038  2.8005832725821000 10.0000000000000000
  4.3887760885645051  5.2010832205096147 10.0000000000000000
  7.1606346708157718  5.2010832205096147 10.0000000000000000
  9.9324932530670385  5.2010832205096147 10.0000000000000000
  3.0028467974388722  1.2002499739637571 12.2632130552233338
  5.7747053796901389  1.2002499739637571 12.2632130552233338
  8.5465639619414056  1.2002499739637571 12.2632130552233338
  4.3887760885645051  3.6007499218912713 12.2632130552233338
  7.1606346708157718  3.6007499218912713 12.2632130552233338
  9.9324932530670385  3.6007499218912713 12.2632130552233338
  5.7747053796901389  6.0012498698187855 12.2632130552233338
  8.5465639619414056  6.0012498698187855 12.2632130552233338
 11.3184225441926714  6.0012498698187855 12.2632130552233338
  1.6169175063132391  2.0004166232729288 14.5264261104466676
  4.3887760885645051  2.0004166232729288 14.5264261104466676
  7.1606346708157718  2.0004166232729288 14.5264261104466676
  3.0028467974388722  4.4009165712004421 14.5264261104466676
  5.7747053796901380  4.4009165712004421 14.5264261104466676
  8.5465639619414038  4.4009165712004421 14.5264261104466676
  4.3887760885645051  6.8014165191279563 14.5264261104466676
  7.1606346708157718  6.8014165191279563 14.5264261104466676
  9.9324932530670385  6.8014165191279563 14.5264261104466676
  1.6169175063132391  0.4000833246545858 16.7896391656699997
  4.3887760885645051  0.4000833246545858 16.7896391656699997
  7.1606346708157718  0.4000833246545858 16.7896391656699997
  3.0028467974388722  2.8005832725821000 16.7896391656699997
  5.7747053796901389  2.8005832725821000 16.7896391656699997
  8.5465639619414038  2.8005832725821000 16.7896391656699997
  4.3887760885645051  5.2010832205096147 16.7896391656699997
  7.1606346708157718  5.2010832205096147 16.7896391656699997
  9.9324932530670385  5.2010832205096147 16.7896391656699997
