Pt H 
 1.0000000000000000
     8.3155757467537992    0.0000000000000000    0.0000000000000000
     4.1577878733768996    7.2014998437825426    0.0000000000000000
     0.0000000000000000    0.0000000000000000   26.7896391656699997
 Pt  H  
  36   4
Cartesian
  2.0887229565182599  0.4045827965377997  9.0829405396847083
  4.8612388598145220  0.4057894105233483  9.0822575846112610
  7.6341217178684770  0.4046135897947205  9.0822981512270715
  3.4763045407616371  2.8052289690637200  9.0823522916716826
  6.2466527649109507  2.8055180272040250  9.0820633853762605
  9.0189210155727615  2.8059335455648124  9.0843156331400969
  4.8614014492246449  5.2075103297713339  9.0833607436728396
  7.6334494921643365  5.2066471235923659  9.0852283671548459
 10.4046885671301848  5.2066316277098910  9.0852965873094789
  3.4758603171411737  1.2047812879720234 11.2823524920946117
  6.2475252493120479  1.2045117466511630 11.2829579822869235
  9.0191133016537997  1.2051764478796809 11.2834688783385726
  4.8617534768531838  3.6047968021205907 11.2823178707212861
  7.6331352516080528  3.6046356243334441 11.2845044694405008
 10.4054218366793663  3.6053402153689946 11.2841668737370018
  6.2474737219354326  6.0057322657753476 11.2844552829701161
  9.0195018249368051  6.0060215755063755 11.2855882027887606
 11.7908001514949561  6.0055433089820633 11.2843809446533765
  2.0903808613308841  2.0034141877014768 13.5675630598933274
  4.8611767426420451  2.0025806508699353 13.5665164014910395
  7.6340161720948219  2.0019978760707624 13.5684006797918109
  3.4766375450683382  4.4024269840731192 13.5688063000923211
  6.2480883926309154  4.4040182989344974 13.5676909247337747
  9.0193978800305796  4.4029133539943786 13.5695500706438335
  4.8607231631117269  6.8036556090927167 13.5639752643481213
  7.6347977619757588  6.8035358813177567 13.5672417158226448
 10.4057444091265552  6.8022512162332331 13.5698348709334997
  2.0877085294802566  0.3965316637866030 15.7681376530949588
  4.8627483203496178  0.4043381370135479 15.7699549019796805
  7.6348004921413013  0.3982018526908862 15.7696030480218443
  3.4760492825238782  2.7965802079396576 15.7745420647216896
  6.2450703659716309  2.7994135812488090 15.7683794641046813
  9.0205595266209428  2.7981575677008159 15.7671260131734456
  4.8609135581395826  5.2041116275168458 15.7698208871470182
  7.6355058589852476  5.2003600835305681 15.7662337348056472
 10.4058370237104274  5.1953691439543839 15.7688997861581264
  2.1199401787380312  1.7185380327893744 17.6423919443068655
  2.0537135350844746  3.2134917724593755 17.6425237869644498
  0.6926392123667111  1.2080093044120908 17.6124851882144355
  9.0386550051263512  4.3770133015298107 17.6062743317705781
