Pt H 
 1.0000000000000000
     8.3155757467537992    0.0000000000000000    0.0000000000000000
     4.1577878733768996    7.2014998437825426    0.0000000000000000
     0.0000000000000000    0.0000000000000000   26.7896391656699997
 Pt  H  
  36   4
Cartesian
  2.0900268458213431  0.4059173213992764  9.1182476074077208
  4.8612997060989054  0.4046484920214725  9.1123573442023584
  7.6323450035904452  0.4066415498229024  9.1179853938676434
  3.4756800187101269  2.8073243606057185  9.1189381186942171
  6.2470678208524877  2.8067872538903806  9.1198271233505945
  9.0185321859523064  2.8079633867069584  9.1184966425943337
  4.8611795320440585  5.2064647841730833  9.1178672070926368
  7.6349754582228915  5.2076375992687787  9.1115989867745597
 10.4028457602670219  5.2076100756918358  9.1098959858960402
  3.4767887200483054  1.2065895875663006 11.3154846187098030
  6.2459945297587076  1.2060904205277179 11.3181216851932458
  9.0182898790107124  1.2062632113748408 11.3177244022920060
  4.8616531977065387  3.6072114051026736 11.3205798235373649
  7.6315524477018242  3.6079382380258589 11.3184608250762189
 10.4054810391983548  3.6075826413932459 11.3163022936149211
  6.2472601069369222  6.0052409337868218 11.3150242373009764
  9.0196249167858511  6.0068346780066948 11.3110782193044628
 11.7895736808612988  6.0055651171324271 11.3150094142456439
  2.0909257079903942  2.0034287955275429 13.5950478076995189
  4.8630141429690736  2.0060938349244064 13.6031907861889501
  7.6319575038490903  2.0060797622574631 13.6008729990124255
  3.4747572869260193  4.4043326386059904 13.6038935049253347
  6.2476360846275387  4.4062720626423637 13.6070080968797935
  9.0205008227212158  4.4045462278911636 13.5995357866720781
  4.8607249491750215  6.8039120945244234 13.5970211844093001
  7.6339320074328390  6.8044746984016999 13.5947093034079547
 10.4057932566551337  6.8049171619670634 13.6004464356282089
  2.0896938252236597  0.3965826818154795 15.7899349528470268
  4.8603035540265598  0.4035695097931596 15.7996807575397966
  7.6359502370135273  0.4022616850028439 15.7987757700995886
  3.4749810451677119  2.7987630589804260 15.8070682527523232
  6.2487710189575960  2.8036911747967164 15.8084450667609442
  9.0235106098104918  2.7978305108598693 15.8006050390967463
  4.8595237932821727  5.2023792866604435 15.8058756519356898
  7.6362704417151708  5.2023362086265781 15.8009616727239397
 10.4073930625798479  5.1990335492039339 15.8047528412280087
  2.1180728310848691  1.6973983938471868 17.6797431797739577
  2.0789466282409528  3.1634299577261276 17.6771634016036074
  0.6867633242891644  1.2017484785715498 17.6364693271255817
  9.0215973295245160  4.4025122000889301 16.3360566256277693
