Cu Zn O 
 1.0000000000000000
    17.8685883605840559    0.0000000000000000    0.0000000000000000
     8.9342941802920279   15.4746514500327255    0.0000000000000000
     0.0000000000000000    0.0000000000000000   24.2527034153236478
 Cu  Zn  O  
 196   7   3
Selective dynamics
Cartesian
  0.0000000000000000  0.0000000000000000  4.5000000000000000   F   F   F
  2.5526554800834362  0.0000000000000000  4.5000000000000000   F   F   F
  5.1053109601668725  0.0000000000000000  4.5000000000000000   F   F   F
  7.6579664402503091  0.0000000000000000  4.5000000000000000   F   F   F
 10.2106219203337449  0.0000000000000000  4.5000000000000000   F   F   F
 12.7632774004171807  0.0000000000000000  4.5000000000000000   F   F   F
 15.3159328805006183  0.0000000000000000  4.5000000000000000   F   F   F
  1.2763277400417181  2.2106644928618180  4.5000000000000000   F   F   F
  3.8289832201251555  2.2106644928618180  4.5000000000000000   F   F   F
  6.3816387002085904  2.2106644928618180  4.5000000000000000   F   F   F
  8.9342941802920279  2.2106644928618180  4.5000000000000000   F   F   F
 11.4869496603754637  2.2106644928618180  4.5000000000000000   F   F   F
 14.0396051404588995  2.2106644928618180  4.5000000000000000   F   F   F
 16.5922606205423371  2.2106644928618180  4.5000000000000000   F   F   F
  2.5526554800834362  4.4213289857236360  4.5000000000000000   F   F   F
  5.1053109601668725  4.4213289857236360  4.5000000000000000   F   F   F
  7.6579664402503109  4.4213289857236360  4.5000000000000000   F   F   F
 10.2106219203337449  4.4213289857236360  4.5000000000000000   F   F   F
 12.7632774004171807  4.4213289857236360  4.5000000000000000   F   F   F
 15.3159328805006165  4.4213289857236360  4.5000000000000000   F   F   F
 17.8685883605840559  4.4213289857236360  4.5000000000000000   F   F   F
  3.8289832201251546  6.6319934785854535  4.5000000000000000   F   F   F
  6.3816387002085904  6.6319934785854535  4.5000000000000000   F   F   F
  8.9342941802920262  6.6319934785854535  4.5000000000000000   F   F   F
 11.4869496603754637  6.6319934785854535  4.5000000000000000   F   F   F
 14.0396051404588995  6.6319934785854535  4.5000000000000000   F   F   F
 16.5922606205423335  6.6319934785854535  4.5000000000000000   F   F   F
 19.1449161006257711  6.6319934785854535  4.5000000000000000   F   F   F
  5.1053109601668725  8.8426579714472719  4.5000000000000000   F   F   F
  7.6579664402503091  8.8426579714472719  4.5000000000000000   F   F   F
 10.2106219203337449  8.8426579714472719  4.5000000000000000   F   F   F
 12.7632774004171807  8.8426579714472719  4.5000000000000000   F   F   F
 15.3159328805006218  8.8426579714472719  4.5000000000000000   F   F   F
 17.8685883605840523  8.8426579714472719  4.5000000000000000   F   F   F
 20.4212438406674899  8.8426579714472719  4.5000000000000000   F   F   F
  6.3816387002085904 11.0533224643090904  4.5000000000000000   F   F   F
  8.9342941802920262 11.0533224643090904  4.5000000000000000   F   F   F
 11.4869496603754637 11.0533224643090904  4.5000000000000000   F   F   F
 14.0396051404588995 11.0533224643090904  4.5000000000000000   F   F   F
 16.5922606205423406 11.0533224643090904  4.5000000000000000   F   F   F
 19.1449161006257711 11.0533224643090904  4.5000000000000000   F   F   F
 21.6975715807092087 11.0533224643090904  4.5000000000000000   F   F   F
  7.6579664402503091 13.2639869571709070  4.5000000000000000   F   F   F
 10.2106219203337449 13.2639869571709070  4.5000000000000000   F   F   F
 12.7632774004171807 13.2639869571709070  4.5000000000000000   F   F   F
 15.3159328805006183 13.2639869571709070  4.5000000000000000   F   F   F
 17.8685883605840523 13.2639869571709070  4.5000000000000000   F   F   F
 20.4212438406674899 13.2639869571709070  4.5000000000000000   F   F   F
 22.9738993207509274 13.2639869571709070  4.5000000000000000   F   F   F
  1.2763277400417181  0.7368881642872727  6.5842344717745487   F   F   F
  3.8289832201251541  0.7368881642872727  6.5842344717745487   F   F   F
  6.3816387002085904  0.7368881642872727  6.5842344717745487   F   F   F
  8.9342941802920262  0.7368881642872727  6.5842344717745487   F   F   F
 11.4869496603754619  0.7368881642872727  6.5842344717745487   F   F   F
 14.0396051404588977  0.7368881642872727  6.5842344717745487   F   F   F
 16.5922606205423371  0.7368881642872727  6.5842344717745487   F   F   F
  2.5526554800834362  2.9475526571490906  6.5842344717745487   F   F   F
  5.1053109601668725  2.9475526571490906  6.5842344717745487   F   F   F
  7.6579664402503091  2.9475526571490906  6.5842344717745487   F   F   F
 10.2106219203337449  2.9475526571490906  6.5842344717745487   F   F   F
 12.7632774004171807  2.9475526571490906  6.5842344717745487   F   F   F
 15.3159328805006165  2.9475526571490906  6.5842344717745487   F   F   F
 17.8685883605840488  2.9475526571490906  6.5842344717745487   F   F   F
  3.8289832201251546  5.1582171500109091  6.5842344717745487   F   F   F
  6.3816387002085904  5.1582171500109091  6.5842344717745487   F   F   F
  8.9342941802920279  5.1582171500109091  6.5842344717745487   F   F   F
 11.4869496603754637  5.1582171500109091  6.5842344717745487   F   F   F
 14.0396051404588995  5.1582171500109091  6.5842344717745487   F   F   F
 16.5922606205423335  5.1582171500109091  6.5842344717745487   F   F   F
 19.1449161006257711  5.1582171500109091  6.5842344717745487   F   F   F
  5.1053109601668725  7.3688816428727266  6.5842344717745487   F   F   F
  7.6579664402503083  7.3688816428727266  6.5842344717745487   F   F   F
 10.2106219203337449  7.3688816428727266  6.5842344717745487   F   F   F
 12.7632774004171807  7.3688816428727266  6.5842344717745487   F   F   F
 15.3159328805006147  7.3688816428727266  6.5842344717745487   F   F   F
 17.8685883605840523  7.3688816428727266  6.5842344717745487   F   F   F
 20.4212438406674899  7.3688816428727266  6.5842344717745487   F   F   F
  6.3816387002085904  9.5795461357345442  6.5842344717745487   F   F   F
  8.9342941802920262  9.5795461357345442  6.5842344717745487   F   F   F
 11.4869496603754619  9.5795461357345442  6.5842344717745487   F   F   F
 14.0396051404588977  9.5795461357345442  6.5842344717745487   F   F   F
 16.5922606205423335  9.5795461357345442  6.5842344717745487   F   F   F
 19.1449161006257711  9.5795461357345442  6.5842344717745487   F   F   F
 21.6975715807092087  9.5795461357345442  6.5842344717745487   F   F   F
  7.6579664402503083 11.7902106285963626  6.5842344717745487   F   F   F
 10.2106219203337449 11.7902106285963626  6.5842344717745487   F   F   F
 12.7632774004171807 11.7902106285963626  6.5842344717745487   F   F   F
 15.3159328805006165 11.7902106285963626  6.5842344717745487   F   F   F
 17.8685883605840523 11.7902106285963626  6.5842344717745487   F   F   F
 20.4212438406674899 11.7902106285963626  6.5842344717745487   F   F   F
 22.9738993207509274 11.7902106285963626  6.5842344717745487   F   F   F
  8.9342941802920262 14.0008751214581793  6.5842344717745487   F   F   F
 11.4869496603754619 14.0008751214581793  6.5842344717745487   F   F   F
 14.0396051404588995 14.0008751214581793  6.5842344717745487   F   F   F
 16.5922606205423335 14.0008751214581793  6.5842344717745487   F   F   F
 19.1449161006257711 14.0008751214581793  6.5842344717745487   F   F   F
 21.6975715807092051 14.0008751214581793  6.5842344717745487   F   F   F
 24.2502270607926391 14.0008751214581793  6.5842344717745487   F   F   F
 17.8685883605840559  1.4737763285745453  8.6684689435490974   F   F   F
  2.5526554800834367  1.4737763285745453  8.6684689435490974   F   F   F
  5.1053109601668725  1.4737763285745453  8.6684689435490974   F   F   F
  7.6579664402503083  1.4737763285745453  8.6684689435490974   F   F   F
 10.2106219203337432  1.4737763285745453  8.6684689435490974   F   F   F
 12.7632774004171807  1.4737763285745453  8.6684689435490974   F   F   F
 15.3159328805006183  1.4737763285745453  8.6684689435490974   F   F   F
 19.1449161006257746  3.6844408214363629  8.6684689435490974   F   F   F
  3.8289832201251546  3.6844408214363629  8.6684689435490974   F   F   F
  6.3816387002085904  3.6844408214363629  8.6684689435490974   F   F   F
  8.9342941802920262  3.6844408214363629  8.6684689435490974   F   F   F
 11.4869496603754619  3.6844408214363629  8.6684689435490974   F   F   F
 14.0396051404588995  3.6844408214363629  8.6684689435490974   F   F   F
 16.5922606205423371  3.6844408214363629  8.6684689435490974   F   F   F
 20.4212438406674934  5.8951053142981813  8.6684689435490974   F   F   F
  5.1053109601668725  5.8951053142981813  8.6684689435490974   F   F   F
  7.6579664402503083  5.8951053142981813  8.6684689435490974   F   F   F
 10.2106219203337449  5.8951053142981813  8.6684689435490974   F   F   F
 12.7632774004171807  5.8951053142981813  8.6684689435490974   F   F   F
 15.3159328805006183  5.8951053142981813  8.6684689435490974   F   F   F
 17.8685883605840559  5.8951053142981813  8.6684689435490974   F   F   F
 21.6975715807092087  8.1057698071599997  8.6684689435490974   F   F   F
  6.3816387002085904  8.1057698071599997  8.6684689435490974   F   F   F
  8.9342941802920262  8.1057698071599997  8.6684689435490974   F   F   F
 11.4869496603754619  8.1057698071599997  8.6684689435490974   F   F   F
 14.0396051404588977  8.1057698071599997  8.6684689435490974   F   F   F
 16.5922606205423371  8.1057698071599997  8.6684689435490974   F   F   F
 19.1449161006257746  8.1057698071599997  8.6684689435490974   F   F   F
 22.9738993207509310 10.3164343000218182  8.6684689435490974   F   F   F
  7.6579664402503091 10.3164343000218182  8.6684689435490974   F   F   F
 10.2106219203337449 10.3164343000218182  8.6684689435490974   F   F   F
 12.7632774004171807 10.3164343000218182  8.6684689435490974   F   F   F
 15.3159328805006183 10.3164343000218182  8.6684689435490974   F   F   F
 17.8685883605840559 10.3164343000218182  8.6684689435490974   F   F   F
 20.4212438406674934 10.3164343000218182  8.6684689435490974   F   F   F
 24.2502270607926498 12.5270987928836366  8.6684689435490974   F   F   F
  8.9342941802920279 12.5270987928836366  8.6684689435490974   F   F   F
 11.4869496603754637 12.5270987928836366  8.6684689435490974   F   F   F
 14.0396051404588995 12.5270987928836366  8.6684689435490974   F   F   F
 16.5922606205423335 12.5270987928836366  8.6684689435490974   F   F   F
 19.1449161006257711 12.5270987928836366  8.6684689435490974   F   F   F
 21.6975715807092087 12.5270987928836366  8.6684689435490974   F   F   F
 25.5265548008343686 14.7377632857454532  8.6684689435490974   F   F   F
 10.2106219203337449 14.7377632857454532  8.6684689435490974   F   F   F
 12.7632774004171807 14.7377632857454532  8.6684689435490974   F   F   F
 15.3159328805006165 14.7377632857454532  8.6684689435490974   F   F   F
 17.8685883605840523 14.7377632857454532  8.6684689435490974   F   F   F
 20.4212438406674899 14.7377632857454532  8.6684689435490974   F   F   F
 22.9738993207509274 14.7377632857454532  8.6684689435490974   F   F   F
  0.0057208015279077  0.0007156754649221 10.7545402824048502   T   T   T
  2.5527515511825443  0.0066167268070294 10.7573323827003815   T   T   T
  5.1018261741950734  0.0046358126477383 10.7544683231139935   T   T   T
 16.5899631138456130 15.4712978037549433 10.7531383479695197   T   T   T
 19.1434597990751207 15.4603779549673899 10.7545141037227285   T   T   T
 21.7000263385304279 15.4537565747245598 10.7542366188121346   T   T   T
 24.2583815118778645 15.4604317380731793 10.7538708448902920   T   T   T
  1.2820078660858889  2.2072835322335949 10.7573370578056124   T   T   T
  3.8232566734267710  2.2074672690075658 10.7573201938759233   T   T   T
  6.3703656673691302  2.2023470154174292 10.7540467440541700   T   T   T
  8.9225827416461296  2.1921099355289386 10.7830276003907937   T   T   T
 11.4920298065807494  2.1743899662274813 10.8055380495474669   T   T   T
 14.0614281787561541  2.1726678396872781 10.7749866550976012   T   T   T
 16.6079199847538028  2.1979299203939560 10.7536693350959922   T   T   T
  2.5504618709578377  4.4160036209900975 10.7544694458142924   T   T   T
  5.0866793426078747  4.4141417994110714 10.7536105051509132   T   T   T
  7.6240455849523530  4.4077030493439633 10.8046282056742733   T   T   T
 10.1924518300455897  4.3886096471046310 10.6779369322130773   T   T   T
 12.7917879990872621  4.3679980020003102 10.7733394102148541   T   T   T
 15.3451896137636385  4.3983416676403495 10.8043849495647315   T   T   T
 17.8816289222120339  4.4156865133554968 10.7540849637836651   T   T   T
 21.6811720259251466  6.6320331204147953 10.7537690263225532   T   T   T
  6.3378303910816749  6.6321386986897810 10.7747185414466973   T   T   T
  8.8740389485198854  6.6347849396446348 10.7732701320556448   T   T   T
 11.4869136226439075  6.6320645466295067 10.7340028173067399   T   T   T
 14.0769094538263566  6.6316916257644660 10.6779164544930847   T   T   T
 16.6141698771046009  6.6310168688482802 10.7829773244306857   T   T   T
 19.1489780719528611  6.6317030969731094 10.7531353036410735   T   T   T
 22.9546810724749015  8.8509986343867997 10.7541880659188589   T   T   T
  7.6242029692334041  8.8565509815236663 10.8056202839616073   T   T   T
 10.1918294673948129  8.8751715104826960 10.6780443553132365   T   T   T
 12.7948852638941606  8.8939436066579454 10.7729483073595951   T   T   T
 15.3446114025569287  8.8649810529274298 10.8051037729256549   T   T   T
 17.8815863841389913  8.8484944210535179 10.7544932868337852   T   T   T
 20.4189372646518805  8.8473521014010181 10.7531597178675078   T   T   T
 24.2386353653301114 11.0616957096426116 10.7545597916523228   T   T   T
  8.9240813755925625 11.0729035813037378 10.7829250362208544   T   T   T
 11.4920570104428847 11.0902216110933587 10.8041871059290813   T   T   T
 14.0615317496518522 11.0912097018349591 10.7748602488465810   T   T   T
 16.6090637913098007 11.0658090031680274 10.7541818113131225   T   T   T
 19.1508777864771496 11.0566131839346937 10.7563667127156215   T   T   T
 21.6917447671985784 11.0568348584901592 10.7563847447370211   T   T   T
 25.5247473277350352 13.2677000397921532 10.7532251210322727   T   T   T
 10.2089723468463234 13.2781094109858877 10.7541224560057689   T   T   T
 12.7664168582056394 13.2838839398050830 10.7536131815465748   T   T   T
 15.3241563650414498 13.2781793382090907 10.7537663269049606   T   T   T
 17.8737933805131703 13.2636233695639465 10.7531635315364404   T   T   T
 20.4211270250392545 13.2571608972805759 10.7563824568660014   T   T   T
 22.9710006614268494 13.2596312623226229 10.7532243027139600   T   T   T
 11.4423158361909163  9.5244011084842715 12.7505223852634053   T   T   T
 14.0140633220668587  5.2245484430246245 12.7513451992973579   T   T   T
 14.0125762934332414  8.0359815014828673 12.7531980282158823   T   T   T
  9.0089365263250443  8.1186713277589693 12.7550213193169508   T   T   T
 11.4869509045431908  6.6353267755031933 14.0291817957800351   T   T   T
  9.0079620339574387  5.1497019377914857 12.7498945371971111   T   T   T
 11.4405762825861572  3.7411973306469104 12.7549224310312646   T   T   T
 13.4278392518380087  6.6284106280951844 13.9529394219387495   T   T   T
 10.5161330865179963  4.9548732098975865 13.9527476348634885   T   T   T
 10.5200028942124018  8.3186970497316377 13.9562138416342680   T   T   T
