 O Zn  H 
 1.0000000000000000
     5.2075474948186553    0.0000000000000000    0.0000000000000000
     0.0037737474093294    5.0060208446335990    0.0000000000000000
     0.0000000000000000    0.0000000000000000    5.0271007117650708
 O   Zn  H  
   1   1   1
Cartesian
  0.0262040953785313 -1.2373911541403344  1.6036429226173645
 -0.0005018201177778 -0.0785675723119168  0.3883754002144325
 -0.3354228766151981 -1.0994332561692526  2.4975512661688306
