Al O  Si H 
 1.0000000000000000
     8.0274830000000001    0.0014740000000000   -0.0150720000000000
    -0.0008760000000000    8.3380740000000007   -0.0029040000000000
     0.3836721240000000    0.0065141180000000   30.7103396490000016
 Al  O   Si  H  
  32  57   3   6
Cartesian
  1.2350665561058116  4.8762943504103990  4.1587262351344796
  1.2701632459147378  4.8893291166305994  9.7123496719682336
  1.2553112276215141  1.9760405840360158  4.1460682735321459
  1.3936772786515721  1.8919577957206635  9.5417163423739328
  3.2715240639600371  0.6879611517203273  5.5808251749148727
  3.2160967987855753  0.4914724883562136 10.9196988106241974
  3.2677431795685661  6.2053063742475603  5.4757388570292198
  4.6419245828785689  4.5337711517515062 12.7287229974086742
  7.1625390004497387  3.4094662755499483  5.4436539318962449
  7.0779986795894994  3.2727608998493634 10.9721696352951010
  2.5799043409775999  3.4111684978932768  1.4480933455228615
  2.2087340931516954  3.4636768121078596  6.9042523771140774
  4.0043443583909983  7.6118910516114351  2.6499305320594870
  3.1500854056946959  6.3290674651796941  8.3799081726933000
  1.2395843075129249  7.5846227843687677  1.6675335062892132
  1.2062138176687254  7.7003834415865366  7.0038410875911126
  7.3089081135362113  3.4243870212814573  2.5327692529622801
  7.2561134669702243  3.4660702908661642  8.2545713756347023
  4.1319980819848361  3.4019931986285279  4.2984022035369920
  4.2116836831247904  3.5755339992316717  9.7824278105145144
  1.0967658654217489  7.5895924915495963  4.2639314489105065
  0.2388343179973003  7.6785134945476763 10.9993073136446160
  6.1318518149063186  7.6138231120728816  5.5920089452952872
  5.2187776246130859  7.7304509288841947  9.4627265382215029
  4.9888902696057125  4.9228339715637617  1.6808501444063140
  5.1840997327897336  4.9071383609954209  6.9621100380016410
  5.0002337213764259  1.9302631465238358  1.6701731764673486
  5.1067890096661799  1.9645912933721692  7.0640152308797797
  7.0685702742100034  0.6340129201602454  2.7091914988756964
  7.2571007899914228  0.7573830197968172  8.2465449868138254
  7.0597679436862917  6.2144784257274557  2.7139307382000557
  7.2570937446659007  6.1813789774544361  8.2842862459804181
  3.0727946394041874  2.0035317360236191  4.2275718702745113
  3.2102930520942401  2.1154488512287304 10.0403845679516870
  3.0660995341320509  4.8044466849362664  4.2742690858880854
  3.0757086299515577  4.8999422876581606  9.5626318435915874
  3.1247967232450571  7.6088293030811691  4.2390591596413127
  3.4203310747274025  7.6168742313525231  9.5924941447602574
  1.3119755305872776  6.2566155404686183  5.4736347301588522
  1.2602592789422915  6.2076784596102970 11.0203884353771766
  1.3315964516310879  0.5868355952379782  5.4994493239245186
  1.3789420292144121  0.6386381220292870 10.8580376392263496
  1.0749010443974905  3.4312384583403461  5.4643923432498349
  0.9489255224869427  3.5522553727161479 11.1095085076622073
  3.4430664196964154  2.0299822024974321  0.9416589809864494
  3.2920009424182934  2.0854172791785475  6.8551499779946559
  3.4361783222279225  4.7972603978729920  0.9457854662200061
  3.2841826390985531  4.9413831494232250  6.9531057401256584
  2.8986466709597720  7.5928040805638721  1.3200146654986651
  3.0297883335804356  7.5112662252824505  6.8651154301580801
  1.0093917894917974  6.2481954567425122  2.9237611693072769
  1.1734575443553978  6.2420772269280889  8.3042442377501580
  1.0057652712499121  0.5877411883423541  2.9333035783785673
  1.0246451884790664  0.7120219161349790  8.2115393941049017
  1.2337260444049418  3.4202428978303576  2.6468443241827848
  1.2155446436820965  3.4248905693183072  8.3883993325754833
  7.3933483077213973  2.1596950255015765  4.0031877524676966
  7.4277027393081925  2.1620301495291647  9.5598028967607327
  7.3847285753873200  4.6786401212184794  4.0009075647603316
  7.4210630970693412  4.7812504809572918  9.5558332439957852
  7.1824622829906026  7.5984523285245196  4.1275717516257044
  7.1294115211101419  7.5828169868239712  9.5714195275460785
  5.0973866366298877  6.1948689705911750  5.6629446225070543
  5.0898820600710399  6.2036833150027606 13.0176231012514982
  5.0906710237322219  0.6850495098005291  5.7156943577384407
  7.0138161701190800  2.1488024072546246 12.3087944642296829
  5.2938288293542861  3.4698052671597730  5.6431400119885957
  5.3495309355658991  3.9196672151482459 11.1234455888799921
  6.8090775294812680  2.0336918528972605  1.4778285715555530
  7.0456652240625672  2.1876179720269144  6.9447242886625000
  6.7963570533354982  4.8124663207623923  1.4840091390914154
  7.0645972952509588  4.7818694417946643  6.9770347121253060
  7.4757709410558855  7.5875837545982563  1.4901554409218853
  7.3303398806531517  7.5886308300338268  6.9761286049534270
  5.1972207396186914  6.3082797739944407  2.7103100362745365
  5.2735234433027367  6.2130981041805304  8.3735603062343262
  5.2113681659466398  0.5594041679552095  2.7184200205199311
  5.4619088676121788  0.7679687328642995  8.3839031540704578
  5.0162758318467606  3.4207366951539222  2.7604224545260072
  5.2440400336623041  3.4764169967550198  8.2842088738930233
  2.8910729975072749  4.5953965448190335 12.5514810915025503
  7.3426940794017757  7.4304043742779520 12.4265206673115873
  3.0390936496659595  0.6600067801845730 12.7699030159027860
  5.0913317404866767  3.2392530758503342 13.8355846705729348
  5.0493615807853489 -0.0851977103161683 11.2459407479735400
  5.4652277914374938  0.5157776237661417 13.7387506114010698
  0.2356983310107947  4.7663415059951744 13.3694207740214583
  7.2775350745166545  2.0682925245948591 14.9334052414086518
  1.5638034030637316  2.5298064055149481 13.6147845354698553
  1.4527594142886300  3.8927306888041016 12.6943659781088307
  6.1714651041306965  2.0462717654414435 13.6773118077873548
  5.7501810954132386  7.6220546387545935 12.6358405234540214
  0.0385806965671645  5.6919991455074230 13.0976034243828305
  3.8612619076837000  0.6952057151255585 13.3391319842149212
  7.1513796890152497  2.7987443341399247 15.5612520137759436
  2.3637603187144851  1.3527261706983069 13.1248815932203797
  0.7382006096666268  2.2962400573214024 14.1331151461347915
  2.0560974512708627  6.0967876698503929 11.5860733889235075
