Pt H 
 1.0000000000000000
     8.3155757467537992    0.0000000000000000    0.0000000000000000
     4.1577878733768996    7.2014998437825426    0.0000000000000000
     0.0000000000000000    0.0000000000000000   26.7896391656699997
 Pt  H  
  36   1
Cartesian
  1.6146256453732788  0.3987601181239561  9.7552452813699890
  4.3910679495044711  0.3987601181239523  9.7552452813699873
  7.1606346708157718  0.3991954859581171  9.7397474887153326
  3.0028467974388731  2.8032296856433652  9.7552452813699855
  5.7770101736241450  2.8019139459803242  9.7543975046385842
  8.5442591680074020  2.8019139459803277  9.7543975046385807
  4.3880071976989008  5.2015271398578538  9.7397474887153308
  7.1606346708157718  5.1984218737131593  9.7543975046385842
  9.9332621439326516  5.2015271398578546  9.7397474887153290
  3.0028467974388753  1.2002499739637604 11.9566600108481502
  5.7773506251683333  1.1981889704699029 11.9505842616933986
  8.5439187164632067  1.1981889704699076 11.9505842616933879
  4.3883138299206381  3.6040712734215612 11.9505842616933915
  7.1606346708157673  3.6007499218912744 11.9557319130873800
  9.9329555117109010  3.6040712734215616 11.9505842616933968
  5.7715978755680748  5.9999895217823536 11.9505842616933897
  8.5496714660634705  5.9999895217823527 11.9505842616933950
 11.3184225441926749  6.0012498698187811 11.9410208086442662
  1.6128591186152883  2.0027597345028170 14.2335501076927482
  4.3928344762624585  2.0027597345028183 14.2335501076927411
  7.1606346708157771  2.0051461710519307 14.2400658819699650
  3.0028467974388739  4.4033367048978302 14.2308762123455619
  5.7788012882151634  4.3985517973109376 14.2400658819699597
  8.5424680534163784  4.3985517973109465 14.2400658819699579
  4.3866801913020135  6.8002064522792622 14.2308762123455619
  7.1606346708157718  6.7967302966681826 14.2335501076927340
  9.9345891503295380  6.8002064522792649 14.2308762123455637
  1.6167150656059948  0.3999664454577620 16.4324272998567693
  4.3889785292717551  0.3999664454577573 16.4324272998567729
  7.1606346708157771  0.3985370867985755 16.4324859914487007
  3.0028467974388744  2.8008170309757485 16.4324272998567693
  5.7761819701035177  2.8014357824547482 16.4466520975426036
  8.5450873715280320  2.8014357824547482 16.4466520975426036
  4.3874370073009059  5.2018563394376196 16.4324859914487078
  7.1606346708157753  5.1993782007643219 16.4466520975426000
  9.9338323343306474  5.2018563394376232 16.4324859914487078
  3.0028467974388735  1.2002499739637569 18.2661999840759677
