Pt H 
 1.0000000000000000
     8.3155757467537992    0.0000000000000000    0.0000000000000000
     4.1577878733768996    7.2014998437825426    0.0000000000000000
     0.0000000000000000    0.0000000000000000   26.7896391656699997
 Pt  H  
  36   1
Cartesian
  1.6169175063132393  0.4000833246545869  9.7816824724630358
  4.3887760885645060  0.4000833246545862  9.7816824724630358
  7.1606346708157727  0.4000833246545872  9.7816824724630287
  3.0028467974388717  2.8005832725821018  9.7816824724630358
  5.7747053796901380  2.8005832725821005  9.7816824724630358
  8.5465639619414038  2.8005832725821000  9.7816824724630322
  4.3887760885645042  5.2010832205096138  9.7816824724630287
  7.1606346708157718  5.2010832205096156  9.7816824724630358
  9.9324932530670385  5.2010832205096138  9.7816824724630358
  3.0028467974388722  1.2002499739637591 11.9867985412272837
  5.7747053796901389  1.2002499739637598 11.9867985412272802
  8.5465639619414056  1.2002499739637584 11.9867985412272837
  4.3887760885645148  3.6007499218912709 11.9867985412272837
  7.1606346708157727  3.6007499218912695 11.9867985412272837
  9.9324932530670402  3.6007499218912722 11.9867985412272837
  5.7747053796901398  6.0012498698187855 11.9867985412272837
  8.5465639619414056  6.0012498698187899 11.9867985412272837
 11.3184225441926749  6.0012498698187873 11.9867985412272837
  1.6169175063132391  2.0004166232729337 14.2693961915699354
  4.3887760885645060  2.0004166232729323 14.2693961915699354
  7.1606346708157744  2.0004166232729332 14.2693961915699390
  3.0028467974388717  4.4009165712004448 14.2693961915699354
  5.7747053796901389  4.4009165712004368 14.2693961915699354
  8.5465639619414038  4.4009165712004439 14.2693961915699497
  4.3887760885645068  6.8014165191279581 14.2693961915699319
  7.1606346708157718  6.8014165191279581 14.2693961915699354
  9.9324932530670385  6.8014165191279563 14.2693961915699354
  1.6169175063132406  0.4000833246545851 16.4745122603341869
  4.3887760885645060  0.4000833246545841 16.4745122603341905
  7.1606346708157727  0.4000833246545909 16.4745122603341940
  3.0028467974388762  2.8005832725820996 16.4745122603341905
  5.7747053796901406  2.8005832725820992 16.4745122603341905
  8.5465639619414038  2.8005832725821005 16.4745122603341905
  4.3887760885645068  5.2010832205096120 16.4745122603341905
  7.1606346708157727  5.2010832205096165 16.4745122603341905
  9.9324932530670385  5.2010832205096147 16.4745122603341940
  3.0028467974388739  1.2002499739637573 17.0079566932069710
