Pt H 
 1.0000000000000000
     8.3155757467537992    0.0000000000000000    0.0000000000000000
     4.1577878733768996    7.2014998437825426    0.0000000000000000
     0.0000000000000000    0.0000000000000000   26.7896391656699997
 Pt  H  
  36   4
Cartesian
  1.9395038670811064  0.4009764011877758  9.0794907942565786
  4.7104546877882516  0.4001882335929641  9.0805702049024006
  7.4818449692674589  0.3985641070647074  9.0836577424317699
  3.3237241046069101  2.8024925177530866  9.0811907368236753
  6.0948696014006014  2.8015477890986409  9.0844714407243909
  8.8685698252352037  2.8013666224510962  9.0816193237784617
  4.7093434285008771  5.2011384900691855  9.0828693320604188
  7.4833900727755633  5.2022411372051298  9.0801576893361258
 10.2548573126976379  5.2001512941264654  9.0810290505131714
  3.3249104459049916  1.1995757503024167 11.2806653896923272
  6.0969093229033149  1.2005167170642550 11.2853016399514559
  8.8675570790223777  1.1992312010809989 11.2815238964368376
  4.7086112378105511  3.5998903686072317 11.2855272582081998
  7.4810861856213071  3.6005753017268924 11.2824478680576661
 10.2530441666679533  3.6001102968295138 11.2829843158392489
  6.0969667922280575  6.0013230685480563 11.2814677499364517
  8.8680057469638225  6.0014507403024506 11.2814583913225590
 11.6381832160083363  5.9993227650725753 11.2852429139133132
  1.9363213757885605  1.9971842227180479 13.5660151372496607
  4.7059884327776302  1.9987549158323845 13.5701584906720605
  7.4821683291117971  1.9983510238567019 13.5692583249339620
  3.3216815061692877  4.3966220906842386 13.5700229628890501
  6.0918774395289637  4.3995033266008061 13.5677246295098488
  8.8655767494780946  4.3970390897454177 13.5664052138913327
  4.7066018502953035  6.7954293514336959 13.5652707259381664
  7.4825410407891111  6.7988119717017623 13.5633606700220941
 10.2520912177946819  6.7969576085769097 13.5683350762624642
  1.9363410346982979  0.3885214986058725 15.7591497021366358
  4.7055855544501775  0.3941144870438200 15.7689399514194122
  7.4783587601718544  0.3955603682034609 15.7682549109777561
  3.3156092325927204  2.7952474876150961 15.7720532023305022
  6.0931199518270747  2.7963654599566246 15.7687388388714407
  8.8651914819635618  2.7929801475764489 15.7716144940991132
  4.7016548314158015  5.1922767519730320 15.7709319779354775
  7.4802869298392345  5.1961315365779175 15.7667177349481165
 10.2488905923326126  5.1933351225128970 15.7681963778441716
  4.6884080024525634  2.0088995277753305 17.6000293604342488
  1.9547282334460339  1.6516570702591487 17.6472407967641480
  1.8519082934088194  3.0813084740259673 17.6687077332617548
  2.8153447811599515  4.1600814693851325 17.6591201201473140
