Pt H 
 1.0000000000000000
     8.3155757467537992    0.0000000000000000    0.0000000000000000
     4.1577878733768996    7.2014998437825426    0.0000000000000000
     0.0000000000000000    0.0000000000000000   26.7896391656699997
 Pt  H  
  36   4
Cartesian
  1.9382888315426903  0.4014432104226148  9.1109412385624378
  4.7098978135031171  0.4016590653852509  9.1132958977926872
  7.4826051922978820  0.4016905911322288  9.1132762182012002
  3.3229222650050558  2.8021824247142466  9.1115824941398937
  6.0962337846616501  2.8005809370792716  9.1135544348628397
  8.8693929781840151  2.8020937846098795  9.1117048603480626
  4.7094243708475911  5.1993004774877987  9.1095900911405323
  7.4829457240032999  5.1991926513483628  9.1097019720933439
 10.2539919049548818  5.2008355584122841  9.1091001331967636
  3.3241911684877681  1.2019515109504155 11.3133447566448115
  6.0963734838451593  1.1995110617413727 11.3164053488452243
  8.8683258687670214  1.2021534887212200 11.3137598247164686
  4.7105257528752773  3.6015785185462206 11.3140934713810992
  7.4818587977829782  3.6014660684414075 11.3142585412176544
 10.2542048179591170  3.6034324588785727 11.3137444995472496
  6.0963821959519100  6.0015172996933641 11.3106058522945521
  8.8668308447090620  6.0014843390498873 11.3122661096223656
 11.6412542354215205  6.0012646572162636 11.3125341345389572
  1.9387350942023638  2.0032488404192477 13.5955499368904764
  4.7103966175351033  2.0017246952188934 13.6006012212423748
  7.4823557817240722  2.0016870045566209 13.6000705528158310
  3.3235529615901358  4.4004749136121113 13.6004961433155103
  6.0962280681218912  4.4008318533262942 13.5949302678336696
  8.8696945009185324  4.4003880356634788 13.5995785199365784
  4.7108348997638183  6.8041769369033034 13.5952835554575646
  7.4821959143967920  6.8042011379466629 13.5954480756191334
 10.2543015647330513  6.7978232188656396 13.5980236020231970
  1.9392314182907813  0.3972987058358800 15.7956322156155000
  4.7113475344060518  0.3977389318833852 15.7984256016911662
  7.4813949714133674  0.3976583048110279 15.7975144951086062
  3.3229971943328045  2.7968080150394234 15.8017636142581956
  6.0964442190106780  2.8030936224860707 15.7999383962691446
  8.8694879287646824  2.7965609229714170 15.8013523138975014
  4.7101725075207685  5.2002818167998202 15.7969081718575577
  7.4830153139345272  5.2004545519486411 15.7965722271631392
 10.2543083745946966  5.1951362183810481 15.8025388760743581
  4.6944128190856871  2.0057238690685555 17.6307560832171148
  1.9411223498559231  1.6679487568741296 17.6787493133401838
  1.9427599545412164  3.1239384029706927 17.6805390324732343
  2.6614676644395865  4.0152589453312064 16.4934900754777303
