Pt H 
 1.0000000000000000
     8.3155757467537992    0.0000000000000000    0.0000000000000000
     4.1577878733768996    7.2014998437825426    0.0000000000000000
     0.0000000000000000    0.0000000000000000   26.7896391656699997
 Pt  H  
  36   3
Cartesian
  1.6154293262793111  0.4009495082807302  9.1209395454527566
  4.3897054108968376  0.4010612144319904  9.1191177719978107
  7.1639211985722575  0.4009420444306686  9.1209626055558370
  3.0026474982166405  2.8035999642119624  9.1205991662070751
  5.7767230231011286  2.8036037122775377  9.1206551043570201
  8.5474632758876599  2.8015083288938087  9.1307096470214173
  4.3896872785993022  5.2020673804684501  9.1120709258945549
  7.1602597533225714  5.1999725196089193  9.1207205963304911
  9.9346857134548845  5.1999959395759783  9.1206886486019751
  3.0041157162112908  1.2011965694358648 11.3200663649066620
  5.7751940741588914  1.2011343641416770 11.3202559490585291
  8.5474533791636294  1.1987864099792100 11.3281409554541153
  4.3896715787468947  3.6012162503106944 11.3201153834846480
  7.1600960323767913  3.6027862078169668 11.3283758054312731
  9.9347949951065413  3.6027688845562538 11.3282344045360421
  5.7754247943023431  6.0024514428986162 11.3200496957213872
  8.5474868646964097  6.0020406982904362 11.3201977423456572
 11.3194295133848417  6.0024778013348161 11.3201170728982365
  1.6159210926075211  2.0014665706330934 13.6105314752111752
  4.3893308400322457  2.0035292251052130 13.6031215985347966
  7.1636366291200373  2.0012454329659159 13.6103031118758242
  3.0061913655991828  4.4045294416293927 13.6076902450922983
  5.7727044947391439  4.4047092426271828 13.6075614767461168
  8.5477962394797906  4.4003595185377220 13.6136723395368531
  4.3895423015074968  6.7987484883492781 13.6110185975693074
  7.1594883052898659  6.8010127257852222 13.6020979135982287
  9.9353569464644806  6.8005902282267101 13.6028285868518228
  1.6189209169682681  0.3992801819431082 15.8102640730126467
  4.3896300234839529  0.4003429040886689 15.7992337181081925
  7.1602360224650390  0.3987433244718926 15.8108528798439316
  3.0040828375413224  2.8021489533933894 15.8065734719529178
  5.7745058306558192  2.8028696450853756 15.8066938387284495
  8.5478996544104575  2.8011364704091308 15.8137132462058467
  4.3901632557588561  5.2019935777459434 15.8139186603094117
  7.1608888745339305  5.2044284564626357 15.8102305264657677
  9.9337435485338226  5.2044097695572082 15.8109421776713699
  3.0090527222173469  4.3938227954906122 17.6457581574750755
  4.3888408955661680  1.9953067671056923 17.6427989094070128
  4.3894816426149523  0.4161941663026155 17.9357853351133976
