Pt H 
 1.0000000000000000
     8.3155757467537992    0.0000000000000000    0.0000000000000000
     4.1577878733768996    7.2014998437825426    0.0000000000000000
     0.0000000000000000    0.0000000000000000   26.7896391656699997
 Pt  H  
  36   3
Cartesian
  1.6174373589281574  0.4008081139345021  9.1319244346219897
  4.3897535895043456  0.4005814509524839  9.1371672866806453
  7.1620256618851625  0.4008182562637132  9.1320573705793304
  3.0033476911651054  2.8017720434176230  9.1372515456309120
  5.7760464687979889  2.8017378348013677  9.1372146354148747
  8.5474648237033435  2.8025991850317986  9.1342038246413146
  4.3897007786128590  5.2024735431496802  9.1319651503297390
  7.1624717925514725  5.2014817721873250  9.1340272916688878
  9.9325526649898510  5.2014931477790283  9.1341955719744057
  3.0030424300935903  1.2008146623800813 11.3360860097566452
  5.7762871858034970  1.2007634568863661 11.3363346432623064
  8.5475446889361173  1.2015123960305973 11.3322028670736294
  4.3896487004874682  3.6024851531533879 11.3362191271980475
  7.1619283372090443  3.6020421433004670 11.3370492374636829
  9.9329188415070071  3.6019378329091851 11.3370285719448169
  5.7758491981783875  6.0019266180943180 11.3318761175858125
  8.5475352693420223  6.0016442565967791 11.3367947592124114
 11.3190273882743799  6.0020331301414922 11.3321336178365524
  1.6174522426495501  2.0015417732495848 13.6207259238734402
  4.3896015181172920  2.0013620153021172 13.6204959503951830
  7.1619024676263834  2.0015243870573225 13.6205788960993495
  3.0032236203857297  4.4020054946062155 13.6211701362066329
  5.7756478624630248  4.4018685763775753 13.6207059172086087
  8.5474730755104940  4.4016754804882687 13.6224979344325838
  4.3895461383815686  6.8021609433822592 13.6149639120236383
  7.1614523233359417  6.8017974964299688 13.6198999364663873
  9.9333880251142741  6.8017460449938616 13.6207030933501922
  1.6158729029641754  0.3996518183458432 15.8196550781314293
  4.3895032929273805  0.4004015467797045 15.8191489517135668
  7.1633514819828568  0.3993389004002838 15.8198332246626734
  3.0031681180942855  2.8012738595188642 15.8197534704767300
  5.7757226331618465  2.8017568949572458 15.8192872576061614
  8.5477937713261234  2.8031217082363171 15.8244100967948818
  4.3896402675553521  5.2040540434905189 15.8205596399924158
  7.1626842231247183  5.2010222223438429 15.8240438309428271
  9.9315395613026425  5.2011943800356830 15.8249239386724128
  3.0081532207240134  4.3958846597055370 17.6577147310480100
  4.3904331211983187  2.0093567884551753 17.6526582374257579
  4.3894711281521435  0.4037630956942069 17.4581455041670246
