Pt H 
 1.0000000000000000
     8.3155757467537992    0.0000000000000000    0.0000000000000000
     4.1577878733768996    7.2014998437825426    0.0000000000000000
     0.0000000000000000    0.0000000000000000   26.7896391656699997
 Pt  H  
  36   4
Cartesian
  2.0902815214405335  0.4059892266812153  9.1015907197228874
  4.8609259369543230  0.4052579316494420  9.1029627487859983
  7.6327148664157365  0.4059458534098104  9.1012379049471761
  3.4751118337602573  2.8049920625288500  9.1021551590975101
  6.2474749867564281  2.8052328093385532  9.1020711602505688
  9.0189713891691028  2.8062375379065645  9.1010898384231815
  4.8613947332576890  5.2064048061613759  9.1056971730271972
  7.6340047379898834  5.2066314408449585  9.1016471718183993
 10.4040196332270085  5.2062971560639282  9.1016767993355536
  3.4759293624816130  1.2046482566236956 11.3017359322998896
  6.2475092451789305  1.2041384532582360 11.3014478010602186
  9.0192473966466462  1.2054371372386463 11.3024759507858406
  4.8618994080740405  3.6043646299576104 11.3032879010320944
  7.6334811635431663  3.6052116980841311 11.3043395977283847
 10.4045286546925784  3.6051239020403267 11.3034956726860134
  6.2483629364300848  6.0055442500524627 11.3029041622780557
  9.0193893035820789  6.0053922605227363 11.3020264178501346
 11.7899858507861204  6.0058217740914843 11.3023140957815205
  2.0922535449067277  2.0024854989255898 13.5882986571613156
  4.8628591134190451  2.0031584063972478 13.5886378626002369
  7.6330255024281497  2.0009697285020476 13.5908250879195904
  3.4754209046285123  4.4011280611346795 13.5873374674897125
  6.2488822310623897  4.4025158523869470 13.5895589709290743
  9.0195382809808482  4.4028972541587805 13.5922631814240500
  4.8599115384009997  6.8040467336755794 13.5834765110021483
  7.6342314874459278  6.8017841167109161 13.5860725511671916
 10.4071430106601373  6.8008680366040242 13.5900228439564064
  2.0881013206765471  0.3955039747513419 15.7846424979786875
  4.8634964479913805  0.3988722735172344 15.7858450212666828
  7.6350814813858268  0.3986576923081431 15.7906962901037815
  3.4754300756344350  2.7979873338322876 15.7909085805895746
  6.2483404439315713  2.8000927561101570 15.7905603085783124
  9.0227817733014959  2.7959292388128727 15.7881320214614185
  4.8603062970144144  5.2006238901992159 15.7881950302515843
  7.6350365176420842  5.2004331998828031 15.7920170195404523
 10.4078294548999999  5.1939811202748105 15.7937255203797218
  2.0993399869155027  1.7390945302184897 17.6601646226028954
  2.0971761821891901  3.2135118996068743 17.6699615863978110
  0.6881422914394297  1.2256539901929853 17.6367663776881436
  9.0121816638335321  2.7514009750063950 17.9315417254478078
