Pt H 
 1.0000000000000000
     8.3155757467537992    0.0000000000000000    0.0000000000000000
     4.1577878733768996    7.2014998437825426    0.0000000000000000
     0.0000000000000000    0.0000000000000000   26.7896391656699997
 Pt  H  
  36   4
Cartesian
  1.9387532319375609  0.3985268977579474  9.0780489772151434
  4.7107693870588410  0.3999494837163801  9.0810008909600537
  7.4818844144385812  0.4004892296089412  9.0796554506918401
  3.3248489057063817  2.8007257309744196  9.0809959314617679
  6.0968157209293929  2.8008099097582648  9.0810318944376522
  8.8676097376365437  2.8007487651232199  9.0808230471650759
  4.7122481820322166  5.2023930876747890  9.0783211699173734
  7.4807337909103353  5.2024350099004222  9.0793115633203012
 10.2540076316105306  5.2022279527180970  9.0811316371095643
  3.3236584189022418  1.2004812146240256 11.2800771385544500
  6.0968429630153054  1.1996314562908579 11.2809610155855857
  8.8687226324082538  1.2006744305749502 11.2804652968491226
  4.7097507479861811  3.6010619086307667 11.2799900350190274
  7.4836444100185000  3.6004535293631146 11.2815191429974462
 10.2539747108677624  3.6004951347505600 11.2822596102139396
  6.0963618928844570  6.0013229877669083 11.2801745229916719
  8.8689728953947196  5.9998459346945587 11.2816566519299855
 11.6398247655098519  6.0002967015256701 11.2805309449132878
  1.9382297093330252  1.9986326857097827 13.5665473516047363
  4.7100271919055494  1.9986950142387268 13.5626490850311896
  7.4816689214482839  1.9981868231648594 13.5661845955602107
  3.3241901376601537  4.3985044974622278 13.5664012932832421
  6.0967377493652171  4.3987864380252546 13.5622203500394214
  8.8678773704546732  4.3984393373643300 13.5685986133859604
  4.7086056307743824  6.7990791007632083 13.5611122010081750
  7.4841359557934153  6.7987424728300434 13.5613635747733259
 10.2539682863242643  6.7991269699043553 13.5667529652536025
  1.9389679962563413  0.3934491304395032 15.7593463695775284
  4.7098662982846689  0.3979890284010989 15.7626039923524832
  7.4811279129824806  0.3965947930439312 15.7625656769691691
  3.3233398890460695  2.7947295141392434 15.7723693923199715
  6.0943218447354521  2.7979683152455115 15.7619419049720033
  8.8686503092146243  2.7941756052940074 15.7713238882696647
  4.7075291291310348  5.1944522821219747 15.7641527813453379
  7.4837687286002996  5.1959329320563139 15.7652632348010400
 10.2542188803260075  5.1939196070629468 15.7717369837457895
  4.7049897697494627  1.9967289344124504 17.6075585476480008
  1.9447733277777166  1.6883737969096790 17.6389379005055424
  1.9434682845289881  3.1677887351221359 17.6461851430575436
  6.0871788871326142  1.2076753089362053 17.6027420879677692
