Pt H 
 1.0000000000000000
     8.3155757467537992    0.0000000000000000    0.0000000000000000
     4.1577878733768996    7.2014998437825426    0.0000000000000000
     0.0000000000000000    0.0000000000000000   26.7896391656699997
 Pt  H  
  36   1
Cartesian
  1.6168604149183334  0.4015983347999394  9.2182117710458371
  4.3888331799594136  0.4015983347999400  9.2182117710458265
  7.1606346708157709  0.4000833246545862  9.2257246088001743
  3.0028467974388739  2.8005832725821014  9.2146526187387963
  5.7734218881147248  2.7997763249111012  9.2182117710458353
  8.5478474535168179  2.7997763249110967  9.2182117710458300
  4.3874355055941878  5.2003751580352660  9.2182117710458371
  7.1606346708157753  5.2010832205096156  9.2165369682782998
  9.9338338360373619  5.2003751580352642  9.2182117710458265
  3.0028467974388762  1.2009363811504095 11.4169928573649244
  5.7734607306244747  1.2009685724368648 11.4225488387433423
  8.5478086110070759  1.2009685724368664 11.4225488387433476
  4.3881816425035272  3.6004067182979438 11.4169928573649297
  7.1606346708157771  3.6008042036063124 11.4180326378600352
  9.9330876991280235  3.6004067182979442 11.4169928573649244
  5.7747523890343304  6.0012227289612623 11.4180326378600352
  8.5465169525972229  6.0012227289612650 11.4180326378600299
 11.3184225441926767  5.9998126728725660 11.4225488387433458
  1.6174449133027597  2.0007211218403023 13.7051162766789449
  4.3882486815749875  2.0007211218403014 13.7051162766789485
  7.1606346708157709  2.0006733849578624 13.7063575917584846
  3.0028467974388735  4.4003075740656996 13.7051162766789432
  5.7734614567735516  4.4001983919696981 13.7035352781410307
  8.5478078848579937  4.4001983919697025 13.7035352781410253
  4.3889984507063771  6.8012881382854937 13.7063575917584828
  7.1606346708157744  6.8028528775894488 13.7035352781410218
  9.9322708909251674  6.8012881382854928 13.7063575917584792
  1.6172939206692434  0.4004034077757332 15.9068488138791491
  4.3883996742085030  0.4004034077757267 15.9068488138791579
  7.1606346708157744  0.4000833246545863 15.9076246924967286
  3.0028467974388722  2.8005832725821009 15.9080869752561487
  5.7742399723979068  2.8007492154161779 15.9068488138791544
  8.5470293692336448  2.8007492154161784 15.9068488138791544
  4.3886870956282733  5.2005971945543941 15.9068488138791597
  7.1606346708157735  5.2010832205096174 15.8996298940261021
  9.9325822460032711  5.2005971945543994 15.9068488138791562
  7.1606346708157727  5.2010832205096147 18.0318697500442759
