Pt H 
 1.0000000000000000
     8.3155757467537992    0.0000000000000000    0.0000000000000000
     4.1577878733768996    7.2014998437825426    0.0000000000000000
     0.0000000000000000    0.0000000000000000   26.7896391656699997
 Pt  H  
  36   1
Cartesian
  1.6169175063132393  0.4000833246545869  9.2289046888994264
  4.3887760885645060  0.4000833246545862  9.2289046888994264
  7.1606346708157727  0.4000833246545872  9.2289046888994193
  3.0028467974388717  2.8005832725821018  9.2289046888994264
  5.7747053796901380  2.8005832725821005  9.2289046888994264
  8.5465639619414038  2.8005832725821000  9.2289046888994228
  4.3887760885645042  5.2010832205096138  9.2289046888994193
  7.1606346708157718  5.2010832205096156  9.2289046888994264
  9.9324932530670385  5.2010832205096138  9.2289046888994264
  3.0028467974388722  1.2002499739637591 11.4340207576636743
  5.7747053796901389  1.2002499739637598 11.4340207576636708
  8.5465639619414056  1.2002499739637584 11.4340207576636743
  4.3887760885645148  3.6007499218912709 11.4340207576636743
  7.1606346708157727  3.6007499218912695 11.4340207576636743
  9.9324932530670402  3.6007499218912722 11.4340207576636743
  5.7747053796901398  6.0012498698187855 11.4340207576636743
  8.5465639619414056  6.0012498698187899 11.4340207576636743
 11.3184225441926749  6.0012498698187873 11.4340207576636743
  1.6169175063132391  2.0004166232729337 13.7166184080063260
  4.3887760885645060  2.0004166232729323 13.7166184080063260
  7.1606346708157744  2.0004166232729332 13.7166184080063296
  3.0028467974388717  4.4009165712004448 13.7166184080063260
  5.7747053796901389  4.4009165712004368 13.7166184080063260
  8.5465639619414038  4.4009165712004439 13.7166184080063402
  4.3887760885645068  6.8014165191279581 13.7166184080063225
  7.1606346708157718  6.8014165191279581 13.7166184080063260
  9.9324932530670385  6.8014165191279563 13.7166184080063260
  1.6169175063132406  0.4000833246545851 15.9217344767705775
  4.3887760885645060  0.4000833246545841 15.9217344767705811
  7.1606346708157727  0.4000833246545909 15.9217344767705846
  3.0028467974388762  2.8005832725820996 15.9217344767705811
  5.7747053796901406  2.8005832725820992 15.9217344767705811
  8.5465639619414038  2.8005832725821005 15.9217344767705811
  4.3887760885645068  5.2010832205096120 15.9217344767705811
  7.1606346708157727  5.2010832205096165 15.9217344767705811
  9.9324932530670385  5.2010832205096147 15.9217344767705846
  7.1606346708157727  5.2010832205096147 17.5607344767705804
