Pt H 
 1.0000000000000000
     8.3155757467537992    0.0000000000000000    0.0000000000000000
     4.1577878733768996    7.2014998437825426    0.0000000000000000
     0.0000000000000000    0.0000000000000000   26.7896391656699997
 Pt  H  
  36   2
Cartesian
  1.8384659085430051  0.3998938741078898  9.1075639246272644
  4.6109166236288672  0.4000381822167541  9.1071739095725910
  7.3825838417395380  0.4021542054508527  9.1074317071866453
  3.2248033233702253  2.8013904336571174  9.1063494025204221
  5.9966753367013110  2.8019539031480658  9.1053506965828070
  8.7682587876496587  2.8019036640590316  9.1054489750489598
  4.6094309839352290  5.2020145676724416  9.1064496306580480
  7.3824395983279478  5.2008040119215524  9.1037627084275439
 10.1556883596426317  5.2019888303031010  9.1061709991227886
  3.2248208164371679  1.2007276268503397 11.3075365484664854
  5.9947983535463401  1.2018340859374799 11.3061724880170864
  8.7700427883345267  1.2018125361331626 11.3062973890795178
  4.6096783826055612  3.6025711903656448 11.3074750068713534
  7.3823543295957359  3.6001235683875619 11.3035880375548707
 10.1553861656841029  3.6026810212005396 11.3070868092305687
  5.9971909964197607  6.0010014941170056 11.3057953459524168
  8.7677370089685756  6.0010719855881085 11.3053322829766341
 11.5403065399965961  6.0039209222423713 11.3076356291719140
  1.8413662733462006  2.0061484646141059 13.5922856813652704
  4.6078255493870000  2.0063614219761887 13.5934508038683166
  7.3827559658037325  1.9952599228800105 13.5891561748593528
  3.2248288072110642  4.4072968874576910 13.5916711837054365
  5.9963053301741596  4.4008330183987852 13.5915548303561966
  8.7684363399757022  4.4004123368668502 13.5912656073070153
  4.6136808879631968  6.8038997503700207 13.5931787519827676
  7.3819944331332126  6.8020959551705431 13.5891268664822373
 10.1515917663223600  6.8036475794174169 13.5921226373393811
  1.8438038523742966  0.4063667808502177 15.7935023103396812
  4.6057188787079459  0.4059855496239941 15.7936933384558067
  7.3822093977377268  0.3948611116657553 15.7935959386064173
  3.2246932171059735  2.8129026365044818 15.7974566453830523
  5.9995311720359163  2.7971748559338634 15.7927799619641398
  8.7656136672366269  2.7972808942317902 15.7921623527955344
  4.6169365847576733  5.2035963467805546 15.7896501375953875
  7.3824754329004714  5.2045059532155893 15.7909693875292767
 10.1479875826784447  5.2036348806944774 15.7893350034900060
  4.6097975586906577  2.0114579296866171 17.6276515508202216
  3.2265712924405139  5.1418740199278279 17.6658719863329345
