Pt H 
 1.0000000000000000
     8.3155757467537992    0.0000000000000000    0.0000000000000000
     4.1577878733768996    7.2014998437825426    0.0000000000000000
     0.0000000000000000    0.0000000000000000   26.7896391656699997
 Pt  H  
  36   2
Cartesian
  1.8384491178285507  0.4008081139345021  9.1344526814331157
  4.6107653484047386  0.4005814509524839  9.1396955334917713
  7.3830374207855556  0.4008182562637132  9.1345856173904565
  3.2243594500654988  2.8017720434176230  9.1397797924420381
  5.9970582276983819  2.8017378348013677  9.1397428822260007
  8.7684765826037374  2.8025991850317986  9.1367320714524407
  4.6107125375132521  5.2024735431496802  9.1344933971408651
  7.3834835514518655  5.2014817721873250  9.1365555384800139
 10.1535644238902449  5.2014931477790283  9.1367238187855317
  3.2240541889939838  1.2008146623800813 11.3386142565677712
  5.9972989447038900  1.2007634568863661 11.3388628900734325
  8.7685564478365112  1.2015123960305973 11.3347311138847555
  4.6106604593878613  3.6024851531533879 11.3387473740091735
  7.3829400961094374  3.6020421433004670 11.3395774842748089
 10.1539306004074010  3.6019378329091851 11.3395568187559430
  5.9968609570787805  6.0019266180943180 11.3344043643969385
  8.7685470282424163  6.0016442565967791 11.3393230060235375
 11.5400391471747739  6.0020331301414922 11.3346618646476784
  1.8384640015499434  2.0015417732495848 13.6232541706845662
  4.6106132770176851  2.0013620153021172 13.6230241972063091
  7.3829142265267764  2.0015243870573225 13.6231071429104755
  3.2242353792861231  4.4020054946062155 13.6236983830177589
  5.9966596213634178  4.4018685763775753 13.6232341640197347
  8.7684848344108879  4.4016754804882687 13.6250261812437099
  4.6105578972819616  6.8021609433822592 13.6174921588347644
  7.3824640822363348  6.8017974964299688 13.6224281832775134
 10.1543997840146680  6.8017460449938616 13.6232313401613183
  1.8368846618645687  0.3996518183458432 15.8221833249425554
  4.6105150518277735  0.4004015467797045 15.8216771985246929
  7.3843632408832498  0.3993389004002838 15.8223614714737995
  3.2241798769946790  2.8012738595188642 15.8222817172878560
  5.9967343920622396  2.8017568949572458 15.8218155044172875
  8.7688055302265173  2.8031217082363171 15.8269383436060078
  4.6106520264557451  5.2040540434905189 15.8230878868035418
  7.3836959820251113  5.2010222223438429 15.8265720777539531
 10.1525513202030364  5.2011943800356830 15.8274521854835388
  4.6114448800987118  2.0093567884551753 17.6551864842368857
  3.2242875386033063  5.1677030281649534 16.5178100202837541
