Ti  O Pt 
 1.0000000000000000
    11.6086997986000000    0.0000000000000000    0.0000000000000000
     0.0000000000000000   10.4970798492000004    0.0000000000000000
     0.0000000000000000    0.0000000000000000   22.0000000000000000
 Ti  O   Pt 
  36  72   6
Selective dynamics
Cartesian
  5.8124724803312082  1.2872604685102853  0.9250464512527320   F   F   F
  5.8124247954604673  4.2684974246653180  7.9731240798954932   T   T   T
  3.8781494291487366  6.5418205002311911  0.9335538626382059   F   F   F
  3.8780246270464254  1.9863482883250583  8.8038093039045329   T   T   T
  5.8124504377098942  4.1469325480266539  1.5147995145773729   F   F   F
  9.6819378871715003  1.2874483215529533  0.9239404185456480   F   F   F
  9.6791014589607123  4.2762615238322210  7.9805350574473737   T   T   T
  7.7473389420726333  6.5415100306576139  0.9325431082020540   F   F   F
  7.7464982995107592  1.9849767647581291  8.7989673397852233   T   T   T
  9.6814284073130157  4.1464569408977656  1.5147242552623918   F   F   F
  1.9432541748174881  1.2876285838869572  0.9245928813258270   F   F   F
  1.9466314598313825  4.2768738706841747  7.9819783127885131   T   T   T
  0.0084317641240774  6.5380682456250332  0.9285465094706881   F   F   F
  0.0082895884703924  1.9679599977133300  8.7187692589019719   T   T   T
  1.9436591228891518  4.1465659124239531  1.5153871994144610   F   F   F
  5.8116061170151951  2.7662339315228670  4.4290555937450193   T   T   T
  3.8747270528446052  9.5540596227865180  7.9960212824260566   T   T   T
  3.8767896928415060  0.4664558968218632  5.1962965467537874   T   T   T
  5.8116072814117699  7.2295078321260187  8.6870383726663132   T   T   T
  9.6806950670161420  2.7684664123696940  4.4295934692710697   T   T   T
  7.7488548427050254  9.5524288248434583  7.9942807119300179   T   T   T
  7.7468764764977029  0.4658708374988993  5.1941378819359434   T   T   T
  9.6776345587707091  7.2205019296175790  8.7033747463112157   T   T   T
  1.9428541224927836  2.7689678482895470  4.4303340164801615   T   T   T
  0.0079583653449640  9.5309142068554689  7.9889249233413508   T   T   T
  0.0077474069282413  0.4569917441683210  5.1662101641139353   T   T   T
  1.9468560761627898  7.2201382021486600  8.7054789623425020   T   T   T
  3.8765343195837385  8.0309927032163504  4.4401550282758260   T   T   T
  3.8778818295906374  9.3991337710586276  1.5316748538211529   F   F   F
  5.8118997642086674  5.7078006794146203  5.1543816618408389   T   T   T
  7.7467877880155074  8.0302322357597280  4.4389576868690064   T   T   T
  7.7472945473223795  9.3989420527733518  1.5304342741064190   F   F   F
  9.6794707056546301  5.7058827891221036  5.1579286499846075   T   T   T
  0.0074915400660218  8.0196450169011975  4.4350883773013638   T   T   T
  0.0082524141789787  9.3962666701981998  1.5205139644401240   F   F   F
  1.9446839263677338  5.7059608451517985  5.1590092440122612   T   T   T
  5.8121301354743178  2.3804447045623900  8.6697408598892824   T   T   T
  3.8780120324253908  4.5636060625327914  1.4776128650764768   F   F   F
  3.8807498540212171  0.1625126747825378  9.6068866350434998   T   T   T
  5.8128161810539796  2.2934456300735548  2.4751757858442902   F   F   F
  5.8125678027532945  6.0336168807484949  0.7307234126292690   F   F   F
  3.8778745520869471  0.7807341864860348  0.7259580071513640   F   F   F
  3.8798958635676328  3.8888613224810538  8.0932954252691491   T   T   T
  3.8794877713460960  8.1886859281825508  0.0653172474820830   F   F   F
  5.8125817281609962  2.9344957415462107  0.0533276145178050   F   F   F
  9.6809421638826834  2.3758795347138704  8.6516778336459801   T   T   T
  7.7470152180938188  4.5634075420161855  1.4769125767418909   F   F   F
  7.7422976833902792  0.1605894931010040  9.6040417172714481   T   T   T
  9.6819174173236302  2.2931531009336958  2.4740278582231441   F   F   F
  9.6816757272881979  6.0326110449546526  0.7287117587122049   F   F   F
  7.7470227282585116  0.7806523102499554  0.7252944131534941   F   F   F
  7.7454713408697939  3.8884942517381136  8.0918125937041712   T   T   T
  7.7476911198940295  8.1884319010235984  0.0641904527834790   F   F   F
  9.6816361280492576  2.9345039306130674  0.0524699404429020   F   F   F
  1.9448363761051590  2.3766376549628467  8.6534332325501264   T   T   T
  0.0082108727456363  4.5624768527766131  1.4754569300337899   F   F   F
  0.0069969353066028  0.1604759284166561  9.5823738097149320   T   T   T
  1.9440219176014912  2.2934443301784304  2.4746679134690370   F   F   F
  1.9437483763370007  6.0327573576776850  0.7294700216990490   F   F   F
  0.0081746494775636  0.7799685937950710  0.7218483798070440   F   F   F
  0.0084509704573218  3.8850892170278941  8.0727799386488428   T   T   T
  0.0092195422505513  8.1852392275634571  0.0574531492707570   F   F   F
  1.9443260847677462  2.9346352972542875  0.0531200669378580   F   F   F
  5.8118281372279945  0.8540220187309361  5.0908225766903037   T   T   T
  3.8788455496707024  7.6225686993899027  8.6213437463289591   T   T   T
  3.8758793189451519  9.1346871775430873  6.0224727305512529   T   T   T
  5.8122791226572028  3.8765929501148890  6.0083139319845538   T   T   T
  5.8119093298131865  5.4192092963264784  9.5700507258443128   T   T   T
  5.8118146153058001  9.1477222143500683  8.0814347872359651   T   T   T
  3.8774986142711079  2.3694105647091099  4.5258405744256018   T   T   T
  3.8784701196280040  0.8762286355930917  7.1761494339691501   T   T   T
  5.8117432097862443  4.5687910554024738  3.5661281372815981   T   T   T
  5.8125979088950741  6.1064558312010915  7.1327524733095107   T   T   T
  9.6815277208482637  0.8519578912382754  5.0839367680125660   T   T   T
  7.7451919790791628  7.6220289365022236  8.6207044636230030   T   T   T
  7.7476741761356038  9.1339010389835202  6.0207572170494208   T   T   T
  9.6783681560967381  3.8771683393268370  6.0070038898193854   T   T   T
  9.6793764190260081  5.4195842231376741  9.5704498183451516   T   T   T
  9.6810268607014578  9.1444224037657520  8.0807136298201385   T   T   T
  7.7463004727577323  2.3689688439649306  4.5248151859341510   T   T   T
  7.7455378106772841  0.8751906128306920  7.1734167909002071   T   T   T
  9.6812830717143328  4.5690059433800396  3.5653343451615993   T   T   T
  9.6807852955494536  6.1080163226020634  7.1345782216926690   T   T   T
  1.9425992668914773  0.8522832789204976  5.0842847510210731   T   T   T
  0.0080636231801496  7.6191211985144989  8.6220981702480604   T   T   T
  0.0081811702678367  9.1279291244095830  6.0109563356594817   T   T   T
  1.9465020409550593  3.8774455672390373  6.0079504947035698   T   T   T
  1.9480899957675453  5.4193340908463590  9.5725599961865413   T   T   T
  1.9434454957527172  9.1448638186543967  8.0829376784219633   T   T   T
  0.0075622095004436  2.3675002919683124  4.5199883877806251   T   T   T
  0.0092470506565159  0.8628498684357842  7.1442214379138971   T   T   T
  1.9424275754233069  4.5693202141229055  3.5661051299113469   T   T   T
  1.9447581522272210  6.1082435448645125  7.1359998091702259   T   T   T
  5.8124000457233578  9.8151958290952965  1.4907977769024539   F   F   F
  3.8779811577568863  6.0983842514528401  5.0683223705967961   T   T   T
  3.8784060515297942  7.5465835921742048  2.4852750297924691   F   F   F
  5.8117513289564489  7.6240772743480889  4.5321766692655920   T   T   T
  3.8771912492103859  9.8259470958479227  3.5836120635549333   T   T   T
  9.6821269996884123  9.8138660865020952  1.4867069941342319   F   F   F
  7.7461605976174743  6.0981188551421290  5.0674882441769640   T   T   T
  7.7472690768724934  7.5462968053959605  2.4841843606889458   F   F   F
  9.6809169702580320  7.6212034089675873  4.5284668100212651   T   T   T
  7.7458387701460403  9.8256003006434831  3.5822279552111551   T   T   T
  1.9427353221297139  9.8140386476644856  1.4874496102879229   F   F   F
  0.0078008271502056  6.0962087104066613  5.0677071783913012   T   T   T
  0.0084327086380396  7.5437427261448935  2.4786485181094258   F   F   F
  1.9428724481398174  7.6213470414224540  4.5291310610598750   T   T   T
  0.0073948233831826  9.8207993744558237  3.5712513003761668   T   T   T
  1.4785759964798446  1.7883205120562899 11.4751440565352940   T   T   T
  3.9785759964798593  1.7883205120562899 11.4751440565352940   T   T   T
  3.6627345192901402  3.1318628204906012 13.1271901203158574   T   T   T
  2.6785759964798528  3.8167647472633393 10.9316240618200151   T   T   T
  1.1944174736695921  3.0520342285671571 13.1594136863910336   T   T   T
  5.0785759964798523  3.9379529575252135 11.0517883734684155   T   T   T
