Al  O Si  H 
 1.0000000000000000
     8.0274830000000001    0.0014740000000000   -0.0150720000000000
    -0.0008760000000000    8.3380740000000007   -0.0029040000000000
     0.3836721240000000    0.0065141180000000   30.7103396490000016
 Al  O   Si  H  
  32  56   3   4
Cartesian
  1.2247918019407420  4.8615608551628631  4.1911554405035840
  1.2537714304404837  4.9167937265914068  9.6632140552219958
  1.2467080290346382  1.9612723317421381  4.1713059884642432
  1.4067654602776951  1.8672642535383039  9.5511921453277608
  3.2675852287233500  0.6741763612212447  5.6063282320015162
  3.2117389811499057  0.4968691542167619 10.9476467041963659
  3.2609680240165524  6.1932576798642023  5.5024101081650176
  4.6802714818881457  4.5760485021994377 12.7965836981022409
  7.1567917886496382  3.3980472208069021  5.4833041479919222
  7.1197475938319430  3.2293735461494011 11.1030516641457346
  2.5768226368163871  3.3908476912620329  1.4672397999540434
  2.2055425076775226  3.4529745497050421  6.9297937049111118
  3.9985976947370703  7.5865343136662027  2.6742204178106959
  3.1851034703310868  6.3337182713961910  8.4096481350320733
  1.2344721138904928  7.5649102490180429  1.6942343239244431
  1.2049388821430203  7.6881447751029661  7.0289204833879086
  7.3047511008793196  3.4006198794119489  2.5605220121585988
  7.2324163895089271  3.4657665146255705  8.3113875759487907
  4.1236722844905618  3.3835591764572599  4.3251388258956087
  4.2180498493695291  3.5819617037682820  9.8445305098271412
  1.0845377713377322  7.5748266586347741  4.2917885556031514
  0.2550125479963689  7.6270206383139358 11.0488466876127553
  6.1260989912396537  7.6017763609147693  5.6219649006183809
  5.2184303787892761  7.7362016740412338  9.5140810002699734
  4.9836074695041184  4.8987381205610072  1.6965683189311125
  5.1768802424042883  4.8904277552653292  6.9819319678563847
  4.9903415195093066  1.9072103255969461  1.6918030868270941
  5.0974873708363972  1.9541950498576843  7.1068788539262551
  7.0604209972445942  0.6112019737297566  2.7324359803751062
  7.2559430250958723  0.7529112885368766  8.2948171351832496
  7.0511101625637709  6.1912700927981028  2.7355708242107331
  7.2302757925105814  6.1834097041227816  8.3051703630166980
  3.0643502259395077  1.9851036242359186  4.2566262718114043
  3.1911527666671522  2.1267284235678652 10.0720537321509873
  3.0547398318186905  4.7854477605912393  4.3145291083024517
  3.0732535213078100  4.9011129682396346  9.5931519449673388
  3.1200411010903606  7.5923678969813668  4.2633580643724480
  3.4221538803506730  7.6313506185102922  9.6145007192033773
  1.2994350575039253  6.2465418245117732  5.5092860639790970
  1.2574786107829599  6.1429593887497917 11.1618849497934338
  1.3222451805109090  0.5728544020481039  5.5235357908579577
  1.3824627739784761  0.6115311771275836 10.8945194006372006
  1.0683691064636145  3.4195264185953116  5.4916651810063106
  0.9137341993288344  3.7132792521540128 11.1902933752728746
  3.4377064017112220  2.0103886461325340  0.9534896528579696
  3.2820791424859110  2.0694855732522663  6.8873443302633834
  3.4292846453571988  4.7792346716213565  0.9644990641971576
  3.2798972845306249  4.9338610100945663  6.9787994892907390
  2.8934702689232994  7.5726715363102377  1.3458864235282135
  3.0307137155258901  7.5043571549501955  6.8864203388826466
  1.0008417381084853  6.2314820519079612  2.9559463448672907
  1.1846001787931599  6.2659132422810053  8.3432766307579165
  0.9954183453372552  0.5719659854844049  2.9569801219042815
  1.0196717598902374  0.7063503047161619  8.2326350065549327
  1.2316697367547071  3.3982930513610956  2.6727441363014797
  1.2142414042474274  3.4198824595173969  8.4161417094292315
  7.3847761678295827  2.1459161168776690  4.0361281717000974
  7.4613393376020198  2.1666536832653041  9.6437049513688944
  7.3762852233403695  4.6584846126253998  4.0247664990274563
  7.4118222507883420  4.8120862358887830  9.5370796751382940
  7.1727363368005577  7.5802116459766893  4.1535287301300068
  7.1246319174369663  7.5783565764687602  9.6188690500397911
  5.0923720409115374  6.1810228013316353  5.6841508150325382
  5.1335441622523748  6.2566183915619629 13.0678439446346601
  5.0864854181871459  0.6737956612641640  5.7588987604960655
  7.1229863302292635  2.2041103082064328 12.5005590920673697
  5.2834548621554651  3.4481403259792298  5.6742148613533985
  5.3817663657155981  3.9012322572022251 11.1825670878527248
  6.7993845996911677  2.0120550118654901  1.5045593132297255
  7.0375848979693414  2.1808709105137298  6.9985530191627943
  6.7906839738499665  4.7851815248105547  1.5051591315584496
  7.0536179923579221  4.7717416304457716  6.9928262988972705
  7.4708097832980291  7.5647364105753594  1.5148787306421523
  7.3216655387559815  7.5831005670498772  7.0134008251351174
  5.1919004144149454  6.2844666191375342  2.7258543873768839
  5.2547325985750835  6.2214540126495121  8.3941943748818630
  5.2039435413408652  0.5344873391597130  2.7380004111690934
  5.4661897561874202  0.7782393493105036  8.4414461480573451
  4.9971817874160216  3.3988532225483201  2.7828145893540657
  5.2350652280858370  3.4731391900162296  8.3259195182489822
  2.9400504990712939  4.5645111179290314 12.6771116071226704
  7.3334795469750826  7.5403083582260519 12.4804662525760417
  3.0555194570242121  0.7991671745405612 12.8095163258415727
  5.1668108100289762  3.3303209249513848 13.9225799274494868
  5.0212063798679045  8.2896520098722011 11.2868589107202162
  5.4132300997992582  0.6042719997625490 13.7713537728066342
  0.3804991520634924  5.1066013330208238 13.4897046149211732
  7.1329788979252644  1.9778327647251206 15.2045653297992942
  1.4471825299292493  4.8911728147137437 12.2764460743186579
  6.2246008419425429  2.1038008180750927 13.8441437276151742
  5.7383244583550646  7.7016379363783471 12.6944903647535821
  7.9028686875292431  5.9533722656044912 13.3861134233764911
  3.8737562821754570  0.8683834751402504 13.4099479508874282
  7.3682155165376351  2.8207160052174993 15.6229588325280488
  2.2611767866298909  1.2358891015775380 13.1644624807660264
