Pt
 1.0000000000000000
     8.3155757467537992    0.0000000000000000    0.0000000000000000
     4.1577878733768996    7.2014998437825426    0.0000000000000000
     0.0000000000000000    0.0000000000000000   26.7896391656699997
 Pt 
  36
Cartesian
  0.0000000000000000  0.0000000000000000 10.0000000000000000 F F F
  2.7718585822512662  0.0000000000000000 10.0000000000000000 F F F
  5.5437171645025325  0.0000000000000000 10.0000000000000000 F F F
  1.3859292911256331  2.4004999479275142 10.0000000000000000 F F F
  4.1577878733768996  2.4004999479275142 10.0000000000000000 F F F
  6.9296464556281654  2.4004999479275142 10.0000000000000000 F F F
  2.7718585822512662  4.8009998958550284 10.0000000000000000 F F F
  5.5437171645025325  4.8009998958550284 10.0000000000000000 F F F
  8.3155757467537992  4.8009998958550284 10.0000000000000000 F F F
  1.3859292911256331  0.8001666493091714 12.2632130552233338 F F F
  4.1577878733768996  0.8001666493091714 12.2632130552233338 F F F
  6.9296464556281663  0.8001666493091714 12.2632130552233338 F F F
  2.7718585822512662  3.2006665972366855 12.2632130552233338 F F F
  5.5437171645025325  3.2006665972366855 12.2632130552233338 F F F
  8.3155757467537992  3.2006665972366855 12.2632130552233338 F F F
  4.1577878733768996  5.6011665451642001 12.2632130552233338 F F F
  6.9296464556281663  5.6011665451642001 12.2632130552233338 F F F
  9.7015050378794321  5.6011665451642001 12.2632130552233338 F F F
  0.0000000000000000  1.6003332986183427 14.5264261104466676 F F F
  2.7718585822512662  1.6003332986183427 14.5264261104466676 F F F
  5.5437171645025325  1.6003332986183427 14.5264261104466676 F F F
  1.3859292911256329  4.0008332465458567 14.5264261104466676 F F F
  4.1577878733768987  4.0008332465458567 14.5264261104466676 F F F
  6.9296464556281654  4.0008332465458567 14.5264261104466676 F F F
  2.7718585822512662  6.4013331944733709 14.5264261104466676 F F F
  5.5437171645025325  6.4013331944733709 14.5264261104466676 F F F
  8.3155757467537992  6.4013331944733709 14.5264261104466676 F F F
  0.0000000000000000  0.0000000000000000 16.7896391656699997 T T T
  2.7718585822512662  0.0000000000000000 16.7896391656699997 T T T
  5.5437171645025325  0.0000000000000000 16.7896391656699997 T T T
  1.3859292911256331  2.4004999479275142 16.7896391656699997 T T T
  4.1577878733768996  2.4004999479275142 16.7896391656699997 T T T
  6.9296464556281654  2.4004999479275142 16.7896391656699997 T T T
  2.7718585822512662  4.8009998958550284 16.7896391656699997 T T T
  5.5437171645025325  4.8009998958550284 16.7896391656699997 T T T
  8.3155757467537992  4.8009998958550284 16.7896391656699997 T T T
