Pt Au Pt
 1.0000000000000000
     8.3155757467537992    0.0000000000000000    0.0000000000000000
     4.1577878733768996    7.2014998437825426    0.0000000000000000
     0.0000000000000000    0.0000000000000000   26.7896391656699997
 Pt  Au  Pt 
  31   1   4
Cartesian
  0.0000000000000000  0.0000000000000000 10.0000000000000000
  2.7718585822512662  0.0000000000000000 10.0000000000000000
  5.5437171645025325  0.0000000000000000 10.0000000000000000
  1.3859292911256331  2.4004999479275142 10.0000000000000000
  4.1577878733768996  2.4004999479275142 10.0000000000000000
  6.9296464556281654  2.4004999479275142 10.0000000000000000
  2.7718585822512662  4.8009998958550284 10.0000000000000000
  5.5437171645025325  4.8009998958550284 10.0000000000000000
  8.3155757467537992  4.8009998958550284 10.0000000000000000
  1.3859292911256331  0.8001666493091714 12.2632130552233338
  4.1577878733768996  0.8001666493091714 12.2632130552233338
  6.9296464556281663  0.8001666493091714 12.2632130552233338
  2.7718585822512662  3.2006665972366855 12.2632130552233338
  5.5437171645025325  3.2006665972366855 12.2632130552233338
  8.3155757467537992  3.2006665972366855 12.2632130552233338
  4.1577878733768996  5.6011665451642001 12.2632130552233338
  6.9296464556281663  5.6011665451642001 12.2632130552233338
  9.7015050378794321  5.6011665451642001 12.2632130552233338
  0.0000000000000000  1.6003332986183427 14.5264261104466676
  2.7718585822512662  1.6003332986183427 14.5264261104466676
  5.5437171645025325  1.6003332986183427 14.5264261104466676
  1.3859292911256329  4.0008332465458567 14.5264261104466676
  4.1577878733768987  4.0008332465458567 14.5264261104466676
  6.9296464556281654  4.0008332465458567 14.5264261104466676
  2.7718585822512662  6.4013331944733709 14.5264261104466676
  5.5437171645025325  6.4013331944733709 14.5264261104466676
  8.3155757467537992  6.4013331944733709 14.5264261104466676
  0.0000000000000000  0.0000000000000000 16.7896391656699997
  2.7718585822512662  0.0000000000000000 16.7896391656699997
  5.5437171645025325  0.0000000000000000 16.7896391656699997
  1.3859292911256331  2.4004999479275142 16.7896391656699997
  4.1577878733768996  2.4004999479275142 16.7896391656699997
  6.9296464556281654  2.4004999479275142 16.7896391656699997
  2.7718585822512662  4.8009998958550284 16.7896391656699997
  5.5437171645025325  4.8009998958550284 16.7896391656699997
  8.3155757467537992  4.8009998958550284 16.7896391656699997
