Pt H 
 1.0000000000000000
     8.3155757467537992    0.0000000000000000    0.0000000000000000
     4.1577878733768996    7.2014998437825426    0.0000000000000000
     0.0000000000000000    0.0000000000000000   26.7896391656699997
 Pt  H  
  36   2
Cartesian
  1.6161232629931042  0.4000396359321484  9.1010435054903347
  4.3884394935692921  0.3998129729501302  9.1062863575489903
  7.1607115659501090  0.4000497782613595  9.1011764414476755
  3.0020335952300523  2.8010035654152694  9.1063706164992571
  5.7747323728629354  2.8009693567990142  9.1063337062832197
  8.5461507277682909  2.8018307070294450  9.1033228955096597
  4.3883866826778055  5.2017050651473262  9.1010842211980840
  7.1611576966164190  5.2007132941849710  9.1031463625372329
  9.9312385690547984  5.2007246697766742  9.1033146428427507
  3.0017283341585372  1.2000461843777277 11.3052050806249902
  5.7749730898684435  1.1999949788840125 11.3054537141306515
  8.5462305930010647  1.2007439180282438 11.3013219379419745
  4.3883346045524148  3.6017166751510343 11.3053381980663925
  7.1606142412739908  3.6012736652981134 11.3061683083320279
  9.9316047455719545  3.6011693549068315 11.3061476428131620
  5.7745351022433340  6.0011581400919640 11.3009951884541575
  8.5462211734069697  6.0008757785944251 11.3059138300807565
 11.3177132923393273  6.0012646521391382 11.3012526887048974
  1.6161381467144968  2.0007732952472312 13.5898449947417852
  4.3882874221822386  2.0005935372997636 13.5896150212635280
  7.1605883716913299  2.0007559090549689 13.5896979669676945
  3.0019095244506766  4.4012370166038615 13.5902892070749779
  5.7743337665279713  4.4011000983752213 13.5898249880769537
  8.5461589795754414  4.4009070024859147 13.5916170053009289
  4.3882320424465151  6.8013924653799052 13.5840829828919833
  7.1601382274008882  6.8010290184276148 13.5890190073347323
  9.9320739291792215  6.8009775669915076 13.5898221642185373
  1.6145588070291221  0.3988833403434895 15.7887741489997744
  4.3881891969923270  0.3996330687773508 15.7882680225819119
  7.1620373860478033  0.3985704223979301 15.7889522955310184
  3.0018540221592325  2.8005053815165106 15.7888725413450750
  5.7744085372267930  2.8009884169548922 15.7884063284745064
  8.5464796753910708  2.8023532302339635 15.7935291676632268
  4.3883261716202986  5.2032855654881649 15.7896787108607608
  7.1613701271896648  5.2002537443414889 15.7931629018111721
  9.9302254653675899  5.2004259020333290 15.7940430095407578
  3.0068391247889603  4.3951161817031830 17.6268338019163551
  4.3891190252632653  2.0085883104528217 17.6217773082941029
