Pt H 
 1.0000000000000000
     8.3155757467537992    0.0000000000000000    0.0000000000000000
     4.1577878733768996    7.2014998437825426    0.0000000000000000
     0.0000000000000000    0.0000000000000000   26.7896391656699997
 Pt  H  
  36   2
Cartesian
  1.6175699919752042  0.3996598035590377  9.1365722637864017
  4.3874227549766855  0.3996598035590381  9.1365722637863982
  7.1602842468528456  0.4003609027928293  9.1332403255658612
  3.0024963734759451  2.7996955013159650  9.1414214279925332
  5.7744606706618020  2.8006777470825117  9.1332403255658612
  8.5461078230438883  2.8006777470825108  9.1332403255658612
  4.3893291718554703  5.2017603697122166  9.1414214279925368
  7.1602842468528465  5.2023967898397769  9.1365722637864053
  9.9312393218502333  5.2017603697122157  9.1414214279925332
  3.0024963734759456  1.1993231520904122 11.3411510348540112
  5.7736946449981579  1.2000242524329452 11.3329986779071739
  8.5468738487075324  1.2000242524329467 11.3329986779071739
  4.3898731580428265  3.6000697202096688 11.3391288237030814
  7.1602842468528420  3.6016678920919620 11.3329986779071703
  9.9306953356628576  3.6000697202096683 11.3391288237030814
  5.7752922817989756  6.0019465443249924 11.3411510348540112
  8.5452762119067192  6.0019465443249933 11.3411510348540148
 11.3180721202297470  6.0030768003210540 11.3391288237030778
  1.6168399267809117  1.9995635278045412 13.6247425696219899
  4.3881528201709772  1.9995635278045389 13.6247425696219864
  7.1602842468528447  2.0005721323192844 13.6143207472353538
  3.0024963734759442  4.4010720802467969 13.6218014489887089
  5.7750920106440509  4.4018126727123486 13.6247425696219793
  8.5454764830616412  4.4018126727123486 13.6247425696219828
  4.3894355639490161  6.8018400402235049 13.6247425696219793
  7.1602842468528465  6.8015720281743119 13.6299247317789920
  9.9311329297566679  6.8018400402235040 13.6247425696219899
  1.6166766621180175  0.4001755677925581 15.8299218843817293
  4.3883160848338658  0.4001755677925554 15.8299218843817293
  7.1602842468528438  0.4014895997064023 15.8214676347203316
  3.0024963734759456  2.8010702694302791 15.8260009602905534
  5.7754381508621284  2.8001133986257263 15.8214676347203316
  8.5451303428435654  2.8001133986257281 15.8214676347203351
  4.3881385877441561  5.2010729856550570 15.8260009602905463
  7.1602842468528429  5.2013652613727359 15.8299218843817329
  9.9324299059615360  5.2010729856550570 15.8260009602905463
  3.0024963734759478  4.4010720802467898 17.6563988401041385
  4.3895586925974497  2.0002941168581505 16.3593766279519883
