Pt H 
 1.0000000000000000
     8.3155757467537992    0.0000000000000000    0.0000000000000000
     4.1577878733768996    7.2014998437825426    0.0000000000000000
     0.0000000000000000    0.0000000000000000   26.7896391656699997
 Pt  H  
  36   2
Cartesian
  1.6205271101888472  0.4032609277763949  9.0923648762227867
  4.3894715865387459  0.4033914611378196  9.0920541871881166
  7.1629011996417011  0.4007563307618971  9.1047934520963327
  3.0051093320403646  2.8012705699321367  9.0919326869711714
  5.7748945760845611  2.8019120996275704  9.1047791421455493
  8.5507425623552784  2.8018164403909318  9.1049367844651528
  4.3893188725391887  5.2046138630898247  9.1048432918764508
  7.1627404387665585  5.2057133191138618  9.1050046713427513
  9.9364695704759480  5.2046078111756655  9.1047556200133055
  3.0052004744151031  1.2029581214971437 11.2933090656371622
  5.7745832002827902  1.2017807331323638 11.3013095966199568
  8.5509535888702999  1.2018399211913959 11.3013707508331738
  4.3888196612148995  3.6019124860482528 11.3012068168404927
  7.1624846640442668  3.6031664464607722 11.3057433330751547
  9.9371572715939109  3.6018607651154113 11.3006036782858708
  5.7770313922309207  6.0062729873080638 11.3013655004607685
  8.5487403944280018  6.0067032642677258 11.3007099653147787
 11.3205042054820737  6.0038695175978631 11.3054391364795457
  1.6210368083221578  2.0031582225026781 13.5839928959737826
  4.3899854592390160  2.0026903116835384 13.5852413201369036
  7.1621211417450459  1.9998235569527327 13.5853056364457832
  3.0050974918671818  4.4063296025529279 13.5911919856442509
  5.7734523929231143  4.4048017238072497 13.5853416467931858
  8.5523687942585749  4.4056868793096262 13.5823944069074418
  4.3877804349046157  6.8025567899926180 13.5895609562563244
  7.1637210426178894  6.8056301703856645 13.5838489816813688
  9.9369782591932818  6.8031206423636021 13.5911544368278925
  1.6204252682307565  0.4036287499263855 15.7830935890803925
  4.3908558199379932  0.4036318183082692 15.7864629226462654
  7.1624177095501249  0.4021656529616088 15.7960915080725250
  3.0053823953350398  2.8029047287346445 15.7864243658082906
  5.7782079131589068  2.8040103302582575 15.7878416899384977
  8.5476441591788763  2.8046898199032921 15.7844151894760660
  4.3898982794881514  5.2042238801355385 15.7957074221263198
  7.1634915057716269  5.2023773740080603 15.7842217105570057
  9.9358931343199615  5.2047810927107809 15.7946735791672861
  4.3890125566021494  2.0114312942825823 17.6190725439513258
  7.1617109533452625  3.6088295191832311 17.6178648955912678
