Pt H 
 1.0000000000000000
     8.3155757467537992    0.0000000000000000    0.0000000000000000
     4.1577878733768996    7.2014998437825426    0.0000000000000000
     0.0000000000000000    0.0000000000000000   26.7896391656699997
 Pt  H  
  36   2
Cartesian
  1.6188190778836336  0.4012633649812731  9.1366763778383806
  4.3912697929694957  0.4014076730901374  9.1362863627837072
  7.1629370110801664  0.4035236963242360  9.1365441603977615
  3.0051564927108538  2.8027599245305006  9.1354618557315383
  5.7770285060419395  2.8033233940214490  9.1344631497939233
  8.5486119569902872  2.8032731549324148  9.1345614282600778
  4.3897841532758575  5.2033840585458249  9.1355620838691642
  7.1627927676685763  5.2021735027949356  9.1328751616386619
  9.9360415289832602  5.2033583211764842  9.1352834523339048
  3.0051739857777964  1.2020971177237230 11.3366490016776034
  5.7751515228869685  1.2032035768108631 11.3352849412282026
  8.5503959576751551  1.2031820270065459 11.3354098422906340
  4.3900315519461897  3.6039406812390280 11.3365874600824696
  7.1627074989363644  3.6014930592609451 11.3327004907659870
  9.9357393350247314  3.6040505120739228 11.3361992624416850
  5.7775441657603892  6.0023709849903888 11.3349077991635347
  8.5480901783092040  6.0024414764614917 11.3344447361877521
 11.3206597093372245  6.0052904131157545 11.3367480823830320
  1.6217194426868291  2.0075179554874891 13.6213981345763884
  4.3881787187276284  2.0077309128495719 13.6225632570794346
  7.1631091351443610  1.9966294137533938 13.6182686280704708
  3.0051819765516927  4.4086663783310742 13.6207836369165527
  5.7766584995147880  4.4022025092721684 13.6206672835673146
  8.5487895093163306  4.4017818277402334 13.6203780605181315
  4.3940340573038252  6.8052692412434039 13.6222912051938856
  7.1623476024738411  6.8034654460439263 13.6182393196933553
  9.9319449356629885  6.8050170702908002 13.6212350905504991
  1.6241570217149250  0.4077362717236010 15.8226147635507992
  4.3860720480485744  0.4073550404973774 15.8228057916669229
  7.1625625670783553  0.3962306025391386 15.8227083918175353
  3.0050463864466019  2.8142721273778650 15.8265690985941703
  5.7798843413765448  2.7985443468072466 15.8218924151752560
  8.5459668365772554  2.7986503851051734 15.8212748060066524
  4.3972897540983018  5.2049658376539378 15.8187625908065037
  7.1628286022410999  5.2058754440889725 15.8200818407403929
  9.9283407520190732  5.2050043715678607 15.8184474567011222
  4.3901507280312861  2.0128274205600003 17.6567640040313378
  7.1629335129107368  3.6018996835752235 16.3560328148258414
