Pt H 
 1.0000000000000000
     8.3155757467537992    0.0000000000000000    0.0000000000000000
     4.1577878733768996    7.2014998437825426    0.0000000000000000
     0.0000000000000000    0.0000000000000000   26.7896391656699997
 Pt  H  
  36   1
Cartesian
  1.8379174098891797  0.3993125547410956  9.6771967803377805
  4.6122430511608190  0.4015422916359052  9.6667389614117578
  7.3804992087817736  0.4011804826106138  9.6674025645755250
  3.2248200952770838  2.8005220622832261  9.6736287416744329
  5.9960577941640718  2.7991033528309965  9.6674025645755233
  8.7635883105048524  2.7983225946172561  9.6744670919327245
  4.6118308268662638  5.2023041896835069  9.6747363590086426
  7.3809370951072415  5.2015205201540624  9.6771967803377876
 10.1538968711414004  5.2020087245057747  9.6736287416744400
  3.2264503468106867  1.2023432948379611 11.8732489179011544
  5.9954757563584886  1.2001520663336771 11.8697961466891933
  8.7672555928941822  1.1985214788372238 11.8754083174751486
  4.6095381216204219  3.6007177269688704 11.8732440731582791
  7.3799535444313138  3.6013991122192905 11.8754083174751486
 10.1507078174471577  3.5991764153485826 11.8755316479058255
  5.9948172251940299  6.0007717590436318 11.8776222030988894
  8.7706485845116955  6.0025099474710721 11.8732489179011580
 11.5392456579290137  6.0011118800545393 11.8732440731582809
  1.8395649778632521  1.9931690574197405 14.1602773330150953
  4.6168059519411022  1.9986126247948544 14.1589795197535420
  7.3871912627506431  2.0036593885845608 14.1524800629975918
  3.2149709413860035  4.3958267587812889 14.1614280896833655
  5.9892528447272033  4.4012339268936955 14.1613383366873418
  8.7620811004009962  4.4060191045347485 14.1602773330150971
  4.6067946380044811  6.7957217802780105 14.1613383366873382
  7.3804347547308735  6.8007584127155960 14.1563792127797949
 10.1554158550739899  6.8084585568296498 14.1589795197535455
  1.8317570229609028  0.3863586228897530 16.3636468654420320
  4.6096052220434380  0.4000193402849106 16.3589707475253121
  7.3879992152136760  0.4104551264507678 16.3595137473102916
  3.2263050235317983  2.7904619662743158 16.3604382199571248
  6.0078398745566455  2.8009612270094921 16.3595137473102952
  8.7779836160588616  2.8066337281539373 16.3607823876713034
  4.5940399736907498  5.1920326358135096 16.3697215446038484
  7.3666384675809438  5.2026624345027042 16.3636468654420284
 10.1459270365605292  5.2083247581016154 16.3604382199571212
  2.5810715576242944  4.0298447789273286 18.2358654175127768
