Pt H 
 1.0000000000000000
     8.3155757467537992    0.0000000000000000    0.0000000000000000
     4.1577878733768996    7.2014998437825426    0.0000000000000000
     0.0000000000000000    0.0000000000000000   26.7896391656699997
 Pt  H  
  36   1
Cartesian
  1.8378574639713403  0.4000833246545869  9.7023597531441617
  4.6097160462226068  0.4000833246545862  9.7023597531441652
  7.3815746284738735  0.4000833246545872  9.7023597531441581
  3.2237867550969730  2.8005832725821018  9.7023597531441617
  5.9956453373482388  2.8005832725821005  9.7023597531441652
  8.7675039195995055  2.8005832725821000  9.7023597531441581
  4.6097160462226050  5.2010832205096138  9.7023597531441581
  7.3815746284738726  5.2010832205096156  9.7023597531441652
 10.1534332107251402  5.2010832205096138  9.7023597531441652
  3.2237867550969734  1.2002499739637591 11.9074758219084131
  5.9956453373482397  1.2002499739637598 11.9074758219084096
  8.7675039195995073  1.2002499739637584 11.9074758219084096
  4.6097160462226157  3.6007499218912709 11.9074758219084131
  7.3815746284738735  3.6007499218912695 11.9074758219084096
 10.1534332107251419  3.6007499218912722 11.9074758219084131
  5.9956453373482406  6.0012498698187855 11.9074758219084131
  8.7675039195995073  6.0012498698187899 11.9074758219084131
 11.5393625018507766  6.0012498698187873 11.9074758219084096
  1.8378574639713401  2.0004166232729337 14.1900734722510649
  4.6097160462226068  2.0004166232729323 14.1900734722510649
  7.3815746284738752  2.0004166232729332 14.1900734722510684
  3.2237867550969730  4.4009165712004448 14.1900734722510613
  5.9956453373482397  4.4009165712004368 14.1900734722510649
  8.7675039195995055  4.4009165712004439 14.1900734722510791
  4.6097160462226077  6.8014165191279581 14.1900734722510613
  7.3815746284738726  6.8014165191279581 14.1900734722510613
 10.1534332107251402  6.8014165191279563 14.1900734722510613
  1.8378574639713416  0.4000833246545851 16.3951895410153128
  4.6097160462226068  0.4000833246545841 16.3951895410153163
  7.3815746284738735  0.4000833246545909 16.3951895410153199
  3.2237867550969774  2.8005832725820996 16.3951895410153163
  5.9956453373482415  2.8005832725820992 16.3951895410153163
  8.7675039195995055  2.8005832725821005 16.3951895410153163
  4.6097160462226077  5.2010832205096120 16.3951895410153163
  7.3815746284738735  5.2010832205096165 16.3951895410153163
 10.1534332107251402  5.2010832205096147 16.3951895410153199
  2.5609668821226652  4.0182373391144912 17.0872794125258416
