Pt H 
 1.0000000000000000
     8.3155757467537992    0.0000000000000000    0.0000000000000000
     4.1577878733768996    7.2014998437825426    0.0000000000000000
     0.0000000000000000    0.0000000000000000   26.7896391656699997
 Pt  H  
  36   3
Cartesian
  2.0779064906724445  0.4002575205987694  9.0818662178815455
  4.8491793509500072  0.3989886912209654  9.0759759546761831
  7.6202246484415470  0.4009817490223954  9.0816040043414681
  3.4635596635612282  2.8016645598052117  9.0825567291680418
  6.2349474657035895  2.8011274530898738  9.0834457338244192
  9.0064118308034082  2.8023035859064516  9.0821152530681584
  4.8490591768951603  5.2008049833725760  9.0814858175664614
  7.6228551030739933  5.2019777984682714  9.0752175972483844
 10.3907254051181237  5.2019502748913284  9.0735145963698649
  3.4646683648994068  1.2009297867657935 11.2791032291836277
  6.2338741746098094  1.2004306197272108 11.2817402956670705
  9.0061695238618142  1.2006034105743337 11.2813430127658307
  4.8495328425576405  3.6015516043021667 11.2841984340111896
  7.6194320925529260  3.6022784372253520 11.2820794355500436
 10.3933606840494566  3.6019228405927390 11.2799209040887458
  6.2351397517880240  5.9995811329863145 11.2786428477748011
  9.0075045616369529  6.0011748772061875 11.2746968297782875
 11.7774533257124006  5.9999053163319198 11.2786280247194686
  2.0788053528414956  1.9977689947270361 13.5586664181733436
  4.8508937878201754  2.0004340341238995 13.5668093966627747
  7.6198371487001921  2.0004199614569562 13.5644916094862502
  3.4626369317771206  4.3986728378054831 13.5675121153991594
  6.2355157294786405  4.4006122618418564 13.5706267073536182
  9.0083804675723176  4.3988864270906562 13.5631543971459028
  4.8486045940261233  6.7982522937239160 13.5606397948831248
  7.6218116522839408  6.7988148976011926 13.5583279138817794
 10.3936729015062355  6.7992573611665561 13.5640650461020336
  2.0775734700747610  0.3909228810149724 15.7535535633208514
  4.8481831988776616  0.3979097089926525 15.7632993680136213
  7.6238298818646291  0.3966018842023369 15.7623943805734132
  3.4628606900188132  2.7931032581799191 15.7706868632261479
  6.2366506638086978  2.7980313739962095 15.7720636772347689
  9.0113902546615936  2.7921707100593625 15.7642236495705710
  4.8474034381332745  5.1967194858599361 15.7694942624095145
  7.6241500865662726  5.1966764078260708 15.7645802831977644
 10.3952727074309497  5.1933737484034266 15.7683714517018334
  2.1059524759359705  1.6917385930466797 17.6433617902477842
  2.0668262730920541  3.1577701569256207 17.6407820120774339
  0.6746429691402658  1.1960886777710427 17.6000879375994081
