Pt H 
 1.0000000000000000
     8.3155757467537992    0.0000000000000000    0.0000000000000000
     4.1577878733768996    7.2014998437825426    0.0000000000000000
     0.0000000000000000    0.0000000000000000   26.7896391656699997
 Pt  H  
  36   3
Cartesian
  1.6166627304137231  0.4001625868890513  9.1089913965487721
  4.3886004243701997  0.4001275161418379  9.1050818355284893
  7.1598907010713715  0.4002040182398064  9.1047913530362017
  3.0026049912731136  2.8006469200692026  9.1089210567340757
  5.7742962788492562  2.8017087495152180  9.1063306128367234
  8.5459553135541348  2.8008172562405891  9.1085940769616993
  4.3892827250382309  5.2007609085649893  9.1063743555272758
  7.1593455583226513  5.2007463542028098  9.1063137643105811
  9.9319384724932256  5.2016093552874416  9.1047081761435056
  3.0030463240146745  1.2002167310237464 11.3092175510356210
  5.7744394808692299  1.2008521445173195 11.3055346416554379
  8.5457703702269008  1.2003935516552326 11.3086944104936666
  4.3887027103710166  3.6011260895152555 11.3087251519524212
  7.1599705517012087  3.6010386199595299 11.3087241841728900
  9.9320795469187164  3.6014372614213883 11.3084046074600781
  5.7744563861840339  6.0011893433729906 11.3088631009056009
  8.5458806867304542  6.0013408060863007 11.3053652308540222
 11.3182487234606608  6.0013566899143074 11.3050435924543056
  1.6172410587450499  2.0005728194337316 13.5929961544467943
  4.3892558964906643  2.0008668108452117 13.5929531591245105
  7.1605544584776171  2.0007108711906643 13.5929515944750925
  3.0030642083790342  4.4016756011315019 13.5920854451683422
  5.7747317693711206  4.4013297943653633 13.5931372394748333
  8.5464805554945880  4.4013817586836836 13.5922457772281415
  4.3886334235449436  6.8015295257213113 13.5923114146399815
  7.1608156487377670  6.8016664672661200 13.5925166365733379
  9.9327504508412652  6.8017302481063444 13.5881039893935629
  1.6173449677869611  0.3999790376472070 15.7906743860896448
  4.3915279599185313  0.3994334997799112 15.7935191851969581
  7.1588899437009541  0.3997585113465189 15.7926445843440710
  3.0035445323132679  2.8017780942227213 15.7910416663333208
  5.7751959478061163  2.8028739048942670 15.7969676760524660
  8.5466787193253175  2.8011567488957905 15.7913331870039517
  4.3909595248110511  5.2000912481251813 15.7953311893066086
  7.1595721057263768  5.2009371706647896 15.7960339025892100
  9.9326677894425153  5.2035725956026528 15.7923256099885378
  4.3804375437757210  2.0078785715154401 17.6276596648406851
  7.1578619674996737  3.6056583590763478 17.6308934201913878
  1.6153205943676261  2.0017070001871926 17.6253941214142387
