Pt H 
 1.0000000000000000
     8.3155757467537992    0.0000000000000000    0.0000000000000000
     4.1577878733768996    7.2014998437825426    0.0000000000000000
     0.0000000000000000    0.0000000000000000   26.7896391656699997
 Pt  H  
  36   3
Cartesian
  1.6179321119453629  0.4008175990938854  9.1316818435965388
  4.3868765882952614  0.4009481324553101  9.1313711545618688
  7.1603062013982166  0.3983130020793876  9.1441104194700848
  3.0025143337968805  2.7988272412496271  9.1312496543449235
  5.7722995778410766  2.7994687709450607  9.1440961095193014
  8.5481475641117939  2.7993731117084222  9.1442537518389049
  4.3867238742957042  5.2021705344073155  9.1441602592502029
  7.1601454405230740  5.2032699904313526  9.1443216387165034
  9.9338745722324635  5.2021644824931563  9.1440725873870576
  3.0026054761716190  1.2005147928146340 11.3326260330109143
  5.7719882020393056  1.1993374044498544 11.3406265639937089
  8.5483585906268154  1.1993965925088865 11.3406877182069259
  4.3862246629714150  3.5994691573657431 11.3405237842142448
  7.1598896658007822  3.6007231177782626 11.3450603004489068
  9.9345622733504264  3.5994174364329017 11.3399206456596229
  5.7744363939874361  6.0038296586255546 11.3406824678345206
  8.5461453961845173  6.0042599355852166 11.3400269326885308
 11.3179092072385892  6.0014261889153540 11.3447561038532978
  1.6184418100786735  2.0007148938201684 13.6233098633475347
  4.3873904609955314  2.0002469830010288 13.6245582875106557
  7.1595261435015614  1.9973802282702233 13.6246226038195353
  3.0025024936236977  4.4038862738704188 13.6305089530180030
  5.7708573946796298  4.4023583951247405 13.6246586141669379
  8.5497737960150904  4.4032435506271170 13.6217113742811939
  4.3851854366611311  6.8001134613101089 13.6288779236300766
  7.1611260443744049  6.8031868417031554 13.6231659490551209
  9.9343832609497973  6.8006773136810930 13.6304714042016446
  1.6178302699872722  0.4011854212438760 15.8224105564541446
  4.3882608216945087  0.4011884896257596 15.8257798900200175
  7.1598227113066404  0.3997223242790993 15.8354084754462772
  3.0027873970915557  2.8004614000521348 15.8257413331820427
  5.7756129149154223  2.8015670015757479 15.8271586573122498
  8.5450491609353918  2.8022464912207825 15.8237321568498182
  4.3873032812446668  5.2017805514530293 15.8350243895000720
  7.1608965075281423  5.1999340453255511 15.8235386779307579
  9.9332981360764769  5.2023377640282717 15.8339905465410382
  4.3864175583586649  2.0089879656000726 17.6583895113250762
  7.1591159551017780  3.6063861905007215 17.6571818629650181
  1.6181793544881788  2.0006908056659269 16.3573301033338545
