Pt H 
 1.0000000000000000
     8.3155757467537992    0.0000000000000000    0.0000000000000000
     4.1577878733768996    7.2014998437825426    0.0000000000000000
     0.0000000000000000    0.0000000000000000   26.7896391656699997
 Pt  H  
  36   3
Cartesian
  1.8375786151830242  0.4013969720956692  9.1023936656161268
  4.6091875971434515  0.4016128270583053  9.1047483248463763
  7.3818949759382164  0.4016443528052832  9.1047286452548892
  3.2222120486453898  2.8021361863873011  9.1030349211935828
  5.9955235683019845  2.8005346987523261  9.1050068619165287
  8.7686827618243495  2.8020475462829340  9.1031572874017517
  4.6087141544879255  5.1992542391608527  9.1010425181942214
  7.3822355076436343  5.1991464130214169  9.1011543991470329
 10.1532816885952162  5.2007893200853381  9.1005525602504527
  3.2234809521281020  1.2019052726234700 11.3047971836985006
  5.9956632674854937  1.1994648234144270 11.3078577758989134
  8.7676156524073559  1.2021072503942742 11.3052122517701576
  4.6098155365156117  3.6015322802192751 11.3055458984347883
  7.3811485814233126  3.6014198301144620 11.3057109682713435
 10.1534946015994514  3.6033862205516272 11.3051969266009387
  5.9956719795922444  6.0014710613664182 11.3020582793482411
  8.7661206283493964  6.0014381007229414 11.3037185366760546
 11.5405440190618549  6.0012184188893176 11.3039865615926463
  1.8380248778426977  2.0032026020923022 13.5870023639441655
  4.6096864011754377  2.0016784568919479 13.5920536482960639
  7.3816455653644066  2.0016407662296754 13.5915229798695201
  3.2228427452304698  4.4004286752851653 13.5919485703691993
  5.9955178517622256  4.4007856149993483 13.5863826948873587
  8.7689842845588668  4.4003417973365329 13.5910309469902675
  4.6101246834041527  6.8041306985763574 13.5867359825112537
  7.3814856980371264  6.8041548996197170 13.5869005026728225
 10.1535913483733857  6.7977769805386936 13.5894760290768861
  1.8385212019311152  0.3972524675089344 15.7870846426691891
  4.6106373180463862  0.3976926935564395 15.7898780287448552
  7.3806847550537018  0.3976120664840823 15.7889669221622952
  3.2222869779731385  2.7967617767124779 15.7932160413118847
  5.9957340026510124  2.8030473841591252 15.7913908233228337
  8.7687777124050168  2.7965146846444715 15.7928047409511905
  4.6094622911611030  5.2002355784728742 15.7883605989112468
  7.3823050975748616  5.2004083136216952 15.7880246542168283
 10.1535981582350310  5.1950899800541022 15.7939913031280472
  4.5937026027260215  2.0056776307416100 17.6222085102708022
  1.8404121334962571  1.6679025185471839 17.6702017403938711
  1.8420497381815504  3.1238921646437472 17.6719914595269252
