Pt H 
 1.0000000000000000
     8.3155757467537992    0.0000000000000000    0.0000000000000000
     4.1577878733768996    7.2014998437825426    0.0000000000000000
     0.0000000000000000    0.0000000000000000   26.7896391656699997
 Pt  H  
  36   3
Cartesian
  1.8376587516172245  0.4003306348371948  9.1376270588916775
  4.6095964455737013  0.4002955640899815  9.1337174978713946
  7.3808867222748731  0.4003720661879500  9.1334270153791053
  3.2236010124766152  2.8008149680173462  9.1375567190769793
  5.9952923000527578  2.8018767974633616  9.1349662751796288
  8.7669513347576355  2.8009853041887327  9.1372297393046047
  4.6102787462417325  5.2009289565131329  9.1350100178701794
  7.3803415795261529  5.2009144021509535  9.1349494266534847
 10.1529344936967263  5.2017774032355852  9.1333438384864110
  3.2240423452181761  1.2003847789718898 11.3378532133785264
  5.9954355020727315  1.2010201924654629 11.3341703039983415
  8.7667663914304015  1.2005615996033761 11.3373300728365720
  4.6096987315745181  3.6012941374633991 11.3373608142953266
  7.3809665729047103  3.6012066679076735 11.3373598465157954
 10.1530755681222171  3.6016053093695319 11.3370402698029835
  5.9954524073875355  6.0013573913211342 11.3374987632485045
  8.7668767079339549  6.0015088540344443 11.3340008931969258
 11.5392447446641615  6.0015247378624510 11.3336792547972109
  1.8382370799485512  2.0007408673818752 13.6216318167896979
  4.6102519176941659  2.0010348587933553 13.6215888214674159
  7.3815504796811187  2.0008789191388079 13.6215872568179961
  3.2240602295825358  4.4018436490796455 13.6207211075112475
  5.9957277905746222  4.4014978423135069 13.6217729018177387
  8.7674765766980887  4.4015498066318273 13.6208814395710469
  4.6096294447484452  6.8016975736694549 13.6209470769828869
  7.3818116699412686  6.8018345152142636 13.6211522989162432
 10.1537464720447659  6.8018982960544880 13.6167396517364665
  1.8383409889904625  0.4001470855953505 15.8193100484325484
  4.6125239811220329  0.3996015477280547 15.8221548475398635
  7.3798859649044557  0.3999265592946624 15.8212802466869746
  3.2245405535167695  2.8019461421708649 15.8196773286762244
  5.9961919690096179  2.8030419528424106 15.8256033383953714
  8.7676747405288182  2.8013247968439341 15.8199688493468571
  4.6119555460145527  5.2002592960733249 15.8239668516495122
  7.3805681269298784  5.2011052186129332 15.8246695649321154
 10.1536638106460160  5.2037406435507965 15.8209612723314414
  4.6014335649792226  2.0080466194635838 17.6562953271835887
  1.8363166155711275  2.0018750481353362 17.6540297837571423
  1.8382537008577247  2.7659825603900425 16.5120158990140808
